ITEM: TIMESTEP
0
ITEM: NUMBER OF ATOMS
45000
ITEM: BOX BOUNDS pp pp pp
-1.0000000000000001e-01 6.0049999999999997e+01
2.9999999999999999e-01 5.1645498823200001e+01
-5.0000000000000000e-01 5.0000000000000000e-01
ITEM: ATOMS id mol
1 1
2 1
3 1
4 1
5 1
6 1
7 1
8 1
9 1
10 1
11 1
12 1
13 1
14 1
15 1
16 1
17 1
18 1
19 1
20 1
21 1
22 1
23 1
24 1
25 1
26 1
27 1
28 1
29 1
30 1
31 1
32 1
33 1
34 1
35 1
36 1
37 1
38 1
39 1
40 1
41 1
42 1
43 1
44 1
45 1
46 1
47 1
48 1
49 1
50 1
51 2
52 2
53 2
54 2
55 2
56 2
57 2
58 2
59 2
60 2
61 2
62 2
63 2
64 2
65 2
66 2
67 2
68 2
69 2
70 2
71 2
72 2
73 2
74 2
75 2
76 2
77 2
78 2
79 2
80 2
81 2
82 2
83 2
84 2
85 2
86 2
87 2
88 2
89 2
90 2
91 2
92 2
93 2
94 2
95 2
96 2
97 2
98 2
99 2
100 2
101 3
102 3
103 3
104 3
105 3
106 3
107 3
108 3
109 3
110 3
111 3
112 3
113 3
114 3
115 3
116 3
117 3
118 3
119 3
120 3
121 3
122 3
123 3
124 3
125 3
126 3
127 3
128 3
129 3
130 3
131 3
132 3
133 3
134 3
135 3
136 3
137 3
138 3
139 3
140 3
141 3
142 3
143 3
144 3
145 3
146 3
147 3
148 3
149 3
150 3
151 4
152 4
153 4
154 4
155 4
156 4
157 4
158 4
159 4
160 4
161 4
162 4
163 4
164 4
165 4
166 4
167 4
168 4
169 4
170 4
171 4
172 4
173 4
174 4
175 4
176 4
177 4
178 4
179 4
180 4
181 4
182 4
183 4
184 4
185 4
186 4
187 4
188 4
189 4
190 4
191 4
192 4
193 4
194 4
195 4
196 4
197 4
198 4
199 4
200 4
201 5
202 5
203 5
204 5
205 5
206 5
207 5
208 5
209 5
210 5
211 5
212 5
213 5
214 5
215 5
216 5
217 5
218 5
219 5
220 5
221 5
222 5
223 5
224 5
225 5
226 5
227 5
228 5
229 5
230 5
231 5
232 5
233 5
234 5
235 5
236 5
237 5
238 5
239 5
240 5
241 5
242 5
243 5
244 5
245 5
246 5
247 5
248 5
249 5
250 5
251 6
252 6
253 6
254 6
255 6
256 6
257 6
258 6
259 6
260 6
261 6
262 6
263 6
264 6
265 6
266 6
267 6
268 6
269 6
270 6
271 6
272 6
273 6
274 6
275 6
276 6
277 6
278 6
279 6
280 6
281 6
282 6
283 6
284 6
285 6
286 6
287 6
288 6
289 6
290 6
291 6
292 6
293 6
294 6
295 6
296 6
297 6
298 6
299 6
300 6
301 7
302 7
303 7
304 7
305 7
306 7
307 7
308 7
309 7
310 7
311 7
312 7
313 7
314 7
315 7
316 7
317 7
318 7
319 7
320 7
321 7
322 7
323 7
324 7
325 7
326 7
327 7
328 7
329 7
330 7
331 7
332 7
333 7
334 7
335 7
336 7
337 7
338 7
339 7
340 7
341 7
342 7
343 7
344 7
345 7
346 7
347 7
348 7
349 7
350 7
351 8
352 8
353 8
354 8
355 8
356 8
357 8
358 8
359 8
360 8
361 8
362 8
363 8
364 8
365 8
366 8
367 8
368 8
369 8
370 8
371 8
372 8
373 8
374 8
375 8
376 8
377 8
378 8
379 8
380 8
381 8
382 8
383 8
384 8
385 8
386 8
387 8
388 8
389 8
390 8
391 8
392 8
393 8
394 8
395 8
396 8
397 8
398 8
399 8
400 8
401 9
402 9
403 9
404 9
405 9
406 9
407 9
408 9
409 9
410 9
411 9
412 9
413 9
414 9
415 9
416 9
417 9
418 9
419 9
420 9
421 9
422 9
423 9
424 9
425 9
426 9
427 9
428 9
429 9
430 9
431 9
432 9
433 9
434 9
435 9
436 9
437 9
438 9
439 9
440 9
441 9
442 9
443 9
444 9
445 9
446 9
447 9
448 9
449 9
450 9
451 10
452 10
453 10
454 10
455 10
456 10
457 10
458 10
459 10
460 10
461 10
462 10
463 10
464 10
465 10
466 10
467 10
468 10
469 10
470 10
471 10
472 10
473 10
474 10
475 10
476 10
477 10
478 10
479 10
480 10
481 10
482 10
483 10
484 10
485 10
486 10
487 10
488 10
489 10
490 10
491 10
492 10
493 10
494 10
495 10
496 10
497 10
498 10
499 10
500 10
501 11
502 11
503 11
504 11
505 11
506 11
507 11
508 11
509 11
510 11
511 11
512 11
513 11
514 11
515 11
516 11
517 11
518 11
519 11
520 11
521 11
522 11
523 11
524 11
525 11
526 11
527 11
528 11
529 11
530 11
531 11
532 11
533 11
534 11
535 11
536 11
537 11
538 11
539 11
540 11
541 11
542 11
543 11
544 11
545 11
546 11
547 11
548 11
549 11
550 11
551 12
552 12
553 12
554 12
555 12
556 12
557 12
558 12
559 12
560 12
561 12
562 12
563 12
564 12
565 12
566 12
567 12
568 12
569 12
570 12
571 12
572 12
573 12
574 12
575 12
576 12
577 12
578 12
579 12
580 12
581 12
582 12
583 12
584 12
585 12
586 12
587 12
588 12
589 12
590 12
591 12
592 12
593 12
594 12
595 12
596 12
597 12
598 12
599 12
600 12
601 13
602 13
603 13
604 13
605 13
606 13
607 13
608 13
609 13
610 13
611 13
612 13
613 13
614 13
615 13
616 13
617 13
618 13
619 13
620 13
621 13
622 13
623 13
624 13
625 13
626 13
627 13
628 13
629 13
630 13
631 13
632 13
633 13
634 13
635 13
636 13
637 13
638 13
639 13
640 13
641 13
642 13
643 13
644 13
645 13
646 13
647 13
648 13
649 13
650 13
651 14
652 14
653 14
654 14
655 14
656 14
657 14
658 14
659 14
660 14
661 14
662 14
663 14
664 14
665 14
666 14
667 14
668 14
669 14
670 14
671 14
672 14
673 14
674 14
675 14
676 14
677 14
678 14
679 14
680 14
681 14
682 14
683 14
684 14
685 14
686 14
687 14
688 14
689 14
690 14
691 14
692 14
693 14
694 14
695 14
696 14
697 14
698 14
699 14
700 14
701 15
702 15
703 15
704 15
705 15
706 15
707 15
708 15
709 15
710 15
711 15
712 15
713 15
714 15
715 15
716 15
717 15
718 15
719 15
720 15
721 15
722 15
723 15
724 15
725 15
726 15
727 15
728 15
729 15
730 15
731 15
732 15
733 15
734 15
735 15
736 15
737 15
738 15
739 15
740 15
741 15
742 15
743 15
744 15
745 15
746 15
747 15
748 15
749 15
750 15
751 16
752 16
753 16
754 16
755 16
756 16
757 16
758 16
759 16
760 16
761 16
762 16
763 16
764 16
765 16
766 16
767 16
768 16
769 16
770 16
771 16
772 16
773 16
774 16
775 16
776 16
777 16
778 16
779 16
780 16
781 16
782 16
783 16
784 16
785 16
786 16
787 16
788 16
789 16
790 16
791 16
792 16
793 16
794 16
795 16
796 16
797 16
798 16
799 16
800 16
801 17
802 17
803 17
804 17
805 17
806 17
807 17
808 17
809 17
810 17
811 17
812 17
813 17
814 17
815 17
816 17
817 17
818 17
819 17
820 17
821 17
822 17
823 17
824 17
825 17
826 17
827 17
828 17
829 17
830 17
831 17
832 17
833 17
834 17
835 17
836 17
837 17
838 17
839 17
840 17
841 17
842 17
843 17
844 17
845 17
846 17
847 17
848 17
849 17
850 17
851 18
852 18
853 18
854 18
855 18
856 18
857 18
858 18
859 18
860 18
861 18
862 18
863 18
864 18
865 18
866 18
867 18
868 18
869 18
870 18
871 18
872 18
873 18
874 18
875 18
876 18
877 18
878 18
879 18
880 18
881 18
882 18
883 18
884 18
885 18
886 18
887 18
888 18
889 18
890 18
891 18
892 18
893 18
894 18
895 18
896 18
897 18
898 18
899 18
900 18
901 19
902 19
903 19
904 19
905 19
906 19
907 19
908 19
909 19
910 19
911 19
912 19
913 19
914 19
915 19
916 19
917 19
918 19
919 19
920 19
921 19
922 19
923 19
924 19
925 19
926 19
927 19
928 19
929 19
930 19
931 19
932 19
933 19
934 19
935 19
936 19
937 19
938 19
939 19
940 19
941 19
942 19
943 19
944 19
945 19
946 19
947 19
948 19
949 19
950 19
951 20
952 20
953 20
954 20
955 20
956 20
957 20
958 20
959 20
960 20
961 20
962 20
963 20
964 20
965 20
966 20
967 20
968 20
969 20
970 20
971 20
972 20
973 20
974 20
975 20
976 20
977 20
978 20
979 20
980 20
981 20
982 20
983 20
984 20
985 20
986 20
987 20
988 20
989 20
990 20
991 20
992 20
993 20
994 20
995 20
996 20
997 20
998 20
999 20
1000 20
1001 21
1002 21
1003 21
1004 21
1005 21
1006 21
1007 21
1008 21
1009 21
1010 21
1011 21
1012 21
1013 21
1014 21
1015 21
1016 21
1017 21
1018 21
1019 21
1020 21
1021 21
1022 21
1023 21
1024 21
1025 21
1026 21
1027 21
1028 21
1029 21
1030 21
1031 21
1032 21
1033 21
1034 21
1035 21
1036 21
1037 21
1038 21
1039 21
1040 21
1041 21
1042 21
1043 21
1044 21
1045 21
1046 21
1047 21
1048 21
1049 21
1050 21
1051 22
1052 22
1053 22
1054 22
1055 22
1056 22
1057 22
1058 22
1059 22
1060 22
1061 22
1062 22
1063 22
1064 22
1065 22
1066 22
1067 22
1068 22
1069 22
1070 22
1071 22
1072 22
1073 22
1074 22
1075 22
1076 22
1077 22
1078 22
1079 22
1080 22
1081 22
1082 22
1083 22
1084 22
1085 22
1086 22
1087 22
1088 22
1089 22
1090 22
1091 22
1092 22
1093 22
1094 22
1095 22
1096 22
1097 22
1098 22
1099 22
1100 22
1101 23
1102 23
1103 23
1104 23
1105 23
1106 23
1107 23
1108 23
1109 23
1110 23
1111 23
1112 23
1113 23
1114 23
1115 23
1116 23
1117 23
1118 23
1119 23
1120 23
1121 23
1122 23
1123 23
1124 23
1125 23
1126 23
1127 23
1128 23
1129 23
1130 23
1131 23
1132 23
1133 23
1134 23
1135 23
1136 23
1137 23
1138 23
1139 23
1140 23
1141 23
1142 23
1143 23
1144 23
1145 23
1146 23
1147 23
1148 23
1149 23
1150 23
1151 24
1152 24
1153 24
1154 24
1155 24
1156 24
1157 24
1158 24
1159 24
1160 24
1161 24
1162 24
1163 24
1164 24
1165 24
1166 24
1167 24
1168 24
1169 24
1170 24
1171 24
1172 24
1173 24
1174 24
1175 24
1176 24
1177 24
1178 24
1179 24
1180 24
1181 24
1182 24
1183 24
1184 24
1185 24
1186 24
1187 24
1188 24
1189 24
1190 24
1191 24
1192 24
1193 24
1194 24
1195 24
1196 24
1197 24
1198 24
1199 24
1200 24
1201 25
1202 25
1203 25
1204 25
1205 25
1206 25
1207 25
1208 25
1209 25
1210 25
1211 25
1212 25
1213 25
1214 25
1215 25
1216 25
1217 25
1218 25
1219 25
1220 25
1221 25
1222 25
1223 25
1224 25
1225 25
1226 25
1227 25
1228 25
1229 25
1230 25
1231 25
1232 25
1233 25
1234 25
1235 25
1236 25
1237 25
1238 25
1239 25
1240 25
1241 25
1242 25
1243 25
1244 25
1245 25
1246 25
1247 25
1248 25
1249 25
1250 25
1251 26
1252 26
1253 26
1254 26
1255 26
1256 26
1257 26
1258 26
1259 26
1260 26
1261 26
1262 26
1263 26
1264 26
1265 26
1266 26
1267 26
1268 26
1269 26
1270 26
1271 26
1272 26
1273 26
1274 26
1275 26
1276 26
1277 26
1278 26
1279 26
1280 26
1281 26
1282 26
1283 26
1284 26
1285 26
1286 26
1287 26
1288 26
1289 26
1290 26
1291 26
1292 26
1293 26
1294 26
1295 26
1296 26
1297 26
1298 26
1299 26
1300 26
1301 27
1302 27
1303 27
1304 27
1305 27
1306 27
1307 27
1308 27
1309 27
1310 27
1311 27
1312 27
1313 27
1314 27
1315 27
1316 27
1317 27
1318 27
1319 27
1320 27
1321 27
1322 27
1323 27
1324 27
1325 27
1326 27
1327 27
1328 27
1329 27
1330 27
1331 27
1332 27
1333 27
1334 27
1335 27
1336 27
1337 27
1338 27
1339 27
1340 27
1341 27
1342 27
1343 27
1344 27
1345 27
1346 27
1347 27
1348 27
1349 27
1350 27
1351 28
1352 28
1353 28
1354 28
1355 28
1356 28
1357 28
1358 28
1359 28
1360 28
1361 28
1362 28
1363 28
1364 28
1365 28
1366 28
1367 28
1368 28
1369 28
1370 28
1371 28
1372 28
1373 28
1374 28
1375 28
1376 28
1377 28
1378 28
1379 28
1380 28
1381 28
1382 28
1383 28
1384 28
1385 28
1386 28
1387 28
1388 28
1389 28
1390 28
1391 28
1392 28
1393 28
1394 28
1395 28
1396 28
1397 28
1398 28
1399 28
1400 28
1401 29
1402 29
1403 29
1404 29
1405 29
1406 29
1407 29
1408 29
1409 29
1410 29
1411 29
1412 29
1413 29
1414 29
1415 29
1416 29
1417 29
1418 29
1419 29
1420 29
1421 29
1422 29
1423 29
1424 29
1425 29
1426 29
1427 29
1428 29
1429 29
1430 29
1431 29
1432 29
1433 29
1434 29
1435 29
1436 29
1437 29
1438 29
1439 29
1440 29
1441 29
1442 29
1443 29
1444 29
1445 29
1446 29
1447 29
1448 29
1449 29
1450 29
1451 30
1452 30
1453 30
1454 30
1455 30
1456 30
1457 30
1458 30
1459 30
1460 30
1461 30
1462 30
1463 30
1464 30
1465 30
1466 30
1467 30
1468 30
1469 30
1470 30
1471 30
1472 30
1473 30
1474 30
1475 30
1476 30
1477 30
1478 30
1479 30
1480 30
1481 30
1482 30
1483 30
1484 30
1485 30
1486 30
1487 30
1488 30
1489 30
1490 30
1491 30
1492 30
1493 30
1494 30
1495 30
1496 30
1497 30
1498 30
1499 30
1500 30
1501 31
1502 31
1503 31
1504 31
1505 31
1506 31
1507 31
1508 31
1509 31
1510 31
1511 31
1512 31
1513 31
1514 31
1515 31
1516 31
1517 31
1518 31
1519 31
1520 31
1521 31
1522 31
1523 31
1524 31
1525 31
1526 31
1527 31
1528 31
1529 31
1530 31
1531 31
1532 31
1533 31
1534 31
1535 31
1536 31
1537 31
1538 31
1539 31
1540 31
1541 31
1542 31
1543 31
1544 31
1545 31
1546 31
1547 31
1548 31
1549 31
1550 31
1551 32
1552 32
1553 32
1554 32
1555 32
1556 32
1557 32
1558 32
1559 32
1560 32
1561 32
1562 32
1563 32
1564 32
1565 32
1566 32
1567 32
1568 32
1569 32
1570 32
1571 32
1572 32
1573 32
1574 32
1575 32
1576 32
1577 32
1578 32
1579 32
1580 32
1581 32
1582 32
1583 32
1584 32
1585 32
1586 32
1587 32
1588 32
1589 32
1590 32
1591 32
1592 32
1593 32
1594 32
1595 32
1596 32
1597 32
1598 32
1599 32
1600 32
1601 33
1602 33
1603 33
1604 33
1605 33
1606 33
1607 33
1608 33
1609 33
1610 33
1611 33
1612 33
1613 33
1614 33
1615 33
1616 33
1617 33
1618 33
1619 33
1620 33
1621 33
1622 33
1623 33
1624 33
1625 33
1626 33
1627 33
1628 33
1629 33
1630 33
1631 33
1632 33
1633 33
1634 33
1635 33
1636 33
1637 33
1638 33
1639 33
1640 33
1641 33
1642 33
1643 33
1644 33
1645 33
1646 33
1647 33
1648 33
1649 33
1650 33
1651 34
1652 34
1653 34
1654 34
1655 34
1656 34
1657 34
1658 34
1659 34
1660 34
1661 34
1662 34
1663 34
1664 34
1665 34
1666 34
1667 34
1668 34
1669 34
1670 34
1671 34
1672 34
1673 34
1674 34
1675 34
1676 34
1677 34
1678 34
1679 34
1680 34
1681 34
1682 34
1683 34
1684 34
1685 34
1686 34
1687 34
1688 34
1689 34
1690 34
1691 34
1692 34
1693 34
1694 34
1695 34
1696 34
1697 34
1698 34
1699 34
1700 34
1701 35
1702 35
1703 35
1704 35
1705 35
1706 35
1707 35
1708 35
1709 35
1710 35
1711 35
1712 35
1713 35
1714 35
1715 35
1716 35
1717 35
1718 35
1719 35
1720 35
1721 35
1722 35
1723 35
1724 35
1725 35
1726 35
1727 35
1728 35
1729 35
1730 35
1731 35
1732 35
1733 35
1734 35
1735 35
1736 35
1737 35
1738 35
1739 35
1740 35
1741 35
1742 35
1743 35
1744 35
1745 35
1746 35
1747 35
1748 35
1749 35
1750 35
1751 36
1752 36
1753 36
1754 36
1755 36
1756 36
1757 36
1758 36
1759 36
1760 36
1761 36
1762 36
1763 36
1764 36
1765 36
1766 36
1767 36
1768 36
1769 36
1770 36
1771 36
1772 36
1773 36
1774 36
1775 36
1776 36
1777 36
1778 36
1779 36
1780 36
1781 36
1782 36
1783 36
1784 36
1785 36
1786 36
1787 36
1788 36
1789 36
1790 36
1791 36
1792 36
1793 36
1794 36
1795 36
1796 36
1797 36
1798 36
1799 36
1800 36
1801 37
1802 37
1803 37
1804 37
1805 37
1806 37
1807 37
1808 37
1809 37
1810 37
1811 37
1812 37
1813 37
1814 37
1815 37
1816 37
1817 37
1818 37
1819 37
1820 37
1821 37
1822 37
1823 37
1824 37
1825 37
1826 37
1827 37
1828 37
1829 37
1830 37
1831 37
1832 37
1833 37
1834 37
1835 37
1836 37
1837 37
1838 37
1839 37
1840 37
1841 37
1842 37
1843 37
1844 37
1845 37
1846 37
1847 37
1848 37
1849 37
1850 37
1851 38
1852 38
1853 38
1854 38
1855 38
1856 38
1857 38
1858 38
1859 38
1860 38
1861 38
1862 38
1863 38
1864 38
1865 38
1866 38
1867 38
1868 38
1869 38
1870 38
1871 38
1872 38
1873 38
1874 38
1875 38
1876 38
1877 38
1878 38
1879 38
1880 38
1881 38
1882 38
1883 38
1884 38
1885 38
1886 38
1887 38
1888 38
1889 38
1890 38
1891 38
1892 38
1893 38
1894 38
1895 38
1896 38
1897 38
1898 38
1899 38
1900 38
1901 39
1902 39
1903 39
1904 39
1905 39
1906 39
1907 39
1908 39
1909 39
1910 39
1911 39
1912 39
1913 39
1914 39
1915 39
1916 39
1917 39
1918 39
1919 39
1920 39
1921 39
1922 39
1923 39
1924 39
1925 39
1926 39
1927 39
1928 39
1929 39
1930 39
1931 39
1932 39
1933 39
1934 39
1935 39
1936 39
1937 39
1938 39
1939 39
1940 39
1941 39
1942 39
1943 39
1944 39
1945 39
1946 39
1947 39
1948 39
1949 39
1950 39
1951 40
1952 40
1953 40
1954 40
1955 40
1956 40
1957 40
1958 40
1959 40
1960 40
1961 40
1962 40
1963 40
1964 40
1965 40
1966 40
1967 40
1968 40
1969 40
1970 40
1971 40
1972 40
1973 40
1974 40
1975 40
1976 40
1977 40
1978 40
1979 40
1980 40
1981 40
1982 40
1983 40
1984 40
1985 40
1986 40
1987 40
1988 40
1989 40
1990 40
1991 40
1992 40
1993 40
1994 40
1995 40
1996 40
1997 40
1998 40
1999 40
2000 40
2001 41
2002 41
2003 41
2004 41
2005 41
2006 41
2007 41
2008 41
2009 41
2010 41
2011 41
2012 41
2013 41
2014 41
2015 41
2016 41
2017 41
2018 41
2019 41
2020 41
2021 41
2022 41
2023 41
2024 41
2025 41
2026 41
2027 41
2028 41
2029 41
2030 41
2031 41
2032 41
2033 41
2034 41
2035 41
2036 41
2037 41
2038 41
2039 41
2040 41
2041 41
2042 41
2043 41
2044 41
2045 41
2046 41
2047 41
2048 41
2049 41
2050 41
2051 42
2052 42
2053 42
2054 42
2055 42
2056 42
2057 42
2058 42
2059 42
2060 42
2061 42
2062 42
2063 42
2064 42
2065 42
2066 42
2067 42
2068 42
2069 42
2070 42
2071 42
2072 42
2073 42
2074 42
2075 42
2076 42
2077 42
2078 42
2079 42
2080 42
2081 42
2082 42
2083 42
2084 42
2085 42
2086 42
2087 42
2088 42
2089 42
2090 42
2091 42
2092 42
2093 42
2094 42
2095 42
2096 42
2097 42
2098 42
2099 42
2100 42
2101 43
2102 43
2103 43
2104 43
2105 43
2106 43
2107 43
2108 43
2109 43
2110 43
2111 43
2112 43
2113 43
2114 43
2115 43
2116 43
2117 43
2118 43
2119 43
2120 43
2121 43
2122 43
2123 43
2124 43
2125 43
2126 43
2127 43
2128 43
2129 43
2130 43
2131 43
2132 43
2133 43
2134 43
2135 43
2136 43
2137 43
2138 43
2139 43
2140 43
2141 43
2142 43
2143 43
2144 43
2145 43
2146 43
2147 43
2148 43
2149 43
2150 43
2151 44
2152 44
2153 44
2154 44
2155 44
2156 44
2157 44
2158 44
2159 44
2160 44
2161 44
2162 44
2163 44
2164 44
2165 44
2166 44
2167 44
2168 44
2169 44
2170 44
2171 44
2172 44
2173 44
2174 44
2175 44
2176 44
2177 44
2178 44
2179 44
2180 44
2181 44
2182 44
2183 44
2184 44
2185 44
2186 44
2187 44
2188 44
2189 44
2190 44
2191 44
2192 44
2193 44
2194 44
2195 44
2196 44
2197 44
2198 44
2199 44
2200 44
2201 45
2202 45
2203 45
2204 45
2205 45
2206 45
2207 45
2208 45
2209 45
2210 45
2211 45
2212 45
2213 45
2214 45
2215 45
2216 45
2217 45
2218 45
2219 45
2220 45
2221 45
2222 45
2223 45
2224 45
2225 45
2226 45
2227 45
2228 45
2229 45
2230 45
2231 45
2232 45
2233 45
2234 45
2235 45
2236 45
2237 45
2238 45
2239 45
2240 45
2241 45
2242 45
2243 45
2244 45
2245 45
2246 45
2247 45
2248 45
2249 45
2250 45
2251 46
2252 46
2253 46
2254 46
2255 46
2256 46
2257 46
2258 46
2259 46
2260 46
2261 46
2262 46
2263 46
2264 46
2265 46
2266 46
2267 46
2268 46
2269 46
2270 46
2271 46
2272 46
2273 46
2274 46
2275 46
2276 46
2277 46
2278 46
2279 46
2280 46
2281 46
2282 46
2283 46
2284 46
2285 46
2286 46
2287 46
2288 46
2289 46
2290 46
2291 46
2292 46
2293 46
2294 46
2295 46
2296 46
2297 46
2298 46
2299 46
2300 46
2301 47
2302 47
2303 47
2304 47
2305 47
2306 47
2307 47
2308 47
2309 47
2310 47
2311 47
2312 47
2313 47
2314 47
2315 47
2316 47
2317 47
2318 47
2319 47
2320 47
2321 47
2322 47
2323 47
2324 47
2325 47
2326 47
2327 47
2328 47
2329 47
2330 47
2331 47
2332 47
2333 47
2334 47
2335 47
2336 47
2337 47
2338 47
2339 47
2340 47
2341 47
2342 47
2343 47
2344 47
2345 47
2346 47
2347 47
2348 47
2349 47
2350 47
2351 48
2352 48
2353 48
2354 48
2355 48
2356 48
2357 48
2358 48
2359 48
2360 48
2361 48
2362 48
2363 48
2364 48
2365 48
2366 48
2367 48
2368 48
2369 48
2370 48
2371 48
2372 48
2373 48
2374 48
2375 48
2376 48
2377 48
2378 48
2379 48
2380 48
2381 48
2382 48
2383 48
2384 48
2385 48
2386 48
2387 48
2388 48
2389 48
2390 48
2391 48
2392 48
2393 48
2394 48
2395 48
2396 48
2397 48
2398 48
2399 48
2400 48
2401 49
2402 49
2403 49
2404 49
2405 49
2406 49
2407 49
2408 49
2409 49
2410 49
2411 49
2412 49
2413 49
2414 49
2415 49
2416 49
2417 49
2418 49
2419 49
2420 49
2421 49
2422 49
2423 49
2424 49
2425 49
2426 49
2427 49
2428 49
2429 49
2430 49
2431 49
2432 49
2433 49
2434 49
2435 49
2436 49
2437 49
2438 49
2439 49
2440 49
2441 49
2442 49
2443 49
2444 49
2445 49
2446 49
2447 49
2448 49
2449 49
2450 49
2451 50
2452 50
2453 50
2454 50
2455 50
2456 50
2457 50
2458 50
2459 50
2460 50
2461 50
2462 50
2463 50
2464 50
2465 50
2466 50
2467 50
2468 50
2469 50
2470 50
2471 50
2472 50
2473 50
2474 50
2475 50
2476 50
2477 50
2478 50
2479 50
2480 50
2481 50
2482 50
2483 50
2484 50
2485 50
2486 50
2487 50
2488 50
2489 50
2490 50
2491 50
2492 50
2493 50
2494 50
2495 50
2496 50
2497 50
2498 50
2499 50
2500 50
2501 51
2502 51
2503 51
2504 51
2505 51
2506 51
2507 51
2508 51
2509 51
2510 51
2511 51
2512 51
2513 51
2514 51
2515 51
2516 51
2517 51
2518 51
2519 51
2520 51
2521 51
2522 51
2523 51
2524 51
2525 51
2526 51
2527 51
2528 51
2529 51
2530 51
2531 51
2532 51
2533 51
2534 51
2535 51
2536 51
2537 51
2538 51
2539 51
2540 51
2541 51
2542 51
2543 51
2544 51
2545 51
2546 51
2547 51
2548 51
2549 51
2550 51
2551 52
2552 52
2553 52
2554 52
2555 52
2556 52
2557 52
2558 52
2559 52
2560 52
2561 52
2562 52
2563 52
2564 52
2565 52
2566 52
2567 52
2568 52
2569 52
2570 52
2571 52
2572 52
2573 52
2574 52
2575 52
2576 52
2577 52
2578 52
2579 52
2580 52
2581 52
2582 52
2583 52
2584 52
2585 52
2586 52
2587 52
2588 52
2589 52
2590 52
2591 52
2592 52
2593 52
2594 52
2595 52
2596 52
2597 52
2598 52
2599 52
2600 52
2601 53
2602 53
2603 53
2604 53
2605 53
2606 53
2607 53
2608 53
2609 53
2610 53
2611 53
2612 53
2613 53
2614 53
2615 53
2616 53
2617 53
2618 53
2619 53
2620 53
2621 53
2622 53
2623 53
2624 53
2625 53
2626 53
2627 53
2628 53
2629 53
2630 53
2631 53
2632 53
2633 53
2634 53
2635 53
2636 53
2637 53
2638 53
2639 53
2640 53
2641 53
2642 53
2643 53
2644 53
2645 53
2646 53
2647 53
2648 53
2649 53
2650 53
2651 54
2652 54
2653 54
2654 54
2655 54
2656 54
2657 54
2658 54
2659 54
2660 54
2661 54
2662 54
2663 54
2664 54
2665 54
2666 54
2667 54
2668 54
2669 54
2670 54
2671 54
2672 54
2673 54
2674 54
2675 54
2676 54
2677 54
2678 54
2679 54
2680 54
2681 54
2682 54
2683 54
2684 54
2685 54
2686 54
2687 54
2688 54
2689 54
2690 54
2691 54
2692 54
2693 54
2694 54
2695 54
2696 54
2697 54
2698 54
2699 54
2700 54
2701 55
2702 55
2703 55
2704 55
2705 55
2706 55
2707 55
2708 55
2709 55
2710 55
2711 55
2712 55
2713 55
2714 55
2715 55
2716 55
2717 55
2718 55
2719 55
2720 55
2721 55
2722 55
2723 55
2724 55
2725 55
2726 55
2727 55
2728 55
2729 55
2730 55
2731 55
2732 55
2733 55
2734 55
2735 55
2736 55
2737 55
2738 55
2739 55
2740 55
2741 55
2742 55
2743 55
2744 55
2745 55
2746 55
2747 55
2748 55
2749 55
2750 55
2751 56
2752 56
2753 56
2754 56
2755 56
2756 56
2757 56
2758 56
2759 56
2760 56
2761 56
2762 56
2763 56
2764 56
2765 56
2766 56
2767 56
2768 56
2769 56
2770 56
2771 56
2772 56
2773 56
2774 56
2775 56
2776 56
2777 56
2778 56
2779 56
2780 56
2781 56
2782 56
2783 56
2784 56
2785 56
2786 56
2787 56
2788 56
2789 56
2790 56
2791 56
2792 56
2793 56
2794 56
2795 56
2796 56
2797 56
2798 56
2799 56
2800 56
2801 57
2802 57
2803 57
2804 57
2805 57
2806 57
2807 57
2808 57
2809 57
2810 57
2811 57
2812 57
2813 57
2814 57
2815 57
2816 57
2817 57
2818 57
2819 57
2820 57
2821 57
2822 57
2823 57
2824 57
2825 57
2826 57
2827 57
2828 57
2829 57
2830 57
2831 57
2832 57
2833 57
2834 57
2835 57
2836 57
2837 57
2838 57
2839 57
2840 57
2841 57
2842 57
2843 57
2844 57
2845 57
2846 57
2847 57
2848 57
2849 57
2850 57
2851 58
2852 58
2853 58
2854 58
2855 58
2856 58
2857 58
2858 58
2859 58
2860 58
2861 58
2862 58
2863 58
2864 58
2865 58
2866 58
2867 58
2868 58
2869 58
2870 58
2871 58
2872 58
2873 58
2874 58
2875 58
2876 58
2877 58
2878 58
2879 58
2880 58
2881 58
2882 58
2883 58
2884 58
2885 58
2886 58
2887 58
2888 58
2889 58
2890 58
2891 58
2892 58
2893 58
2894 58
2895 58
2896 58
2897 58
2898 58
2899 58
2900 58
2901 59
2902 59
2903 59
2904 59
2905 59
2906 59
2907 59
2908 59
2909 59
2910 59
2911 59
2912 59
2913 59
2914 59
2915 59
2916 59
2917 59
2918 59
2919 59
2920 59
2921 59
2922 59
2923 59
2924 59
2925 59
2926 59
2927 59
2928 59
2929 59
2930 59
2931 59
2932 59
2933 59
2934 59
2935 59
2936 59
2937 59
2938 59
2939 59
2940 59
2941 59
2942 59
2943 59
2944 59
2945 59
2946 59
2947 59
2948 59
2949 59
2950 59
2951 60
2952 60
2953 60
2954 60
2955 60
2956 60
2957 60
2958 60
2959 60
2960 60
2961 60
2962 60
2963 60
2964 60
2965 60
2966 60
2967 60
2968 60
2969 60
2970 60
2971 60
2972 60
2973 60
2974 60
2975 60
2976 60
2977 60
2978 60
2979 60
2980 60
2981 60
2982 60
2983 60
2984 60
2985 60
2986 60
2987 60
2988 60
2989 60
2990 60
2991 60
2992 60
2993 60
2994 60
2995 60
2996 60
2997 60
2998 60
2999 60
3000 60
3001 61
3002 61
3003 61
3004 61
3005 61
3006 61
3007 61
3008 61
3009 61
3010 61
3011 61
3012 61
3013 61
3014 61
3015 61
3016 61
3017 61
3018 61
3019 61
3020 61
3021 61
3022 61
3023 61
3024 61
3025 61
3026 61
3027 61
3028 61
3029 61
3030 61
3031 61
3032 61
3033 61
3034 61
3035 61
3036 61
3037 61
3038 61
3039 61
3040 61
3041 61
3042 61
3043 61
3044 61
3045 61
3046 61
3047 61
3048 61
3049 61
3050 61
3051 62
3052 62
3053 62
3054 62
3055 62
3056 62
3057 62
3058 62
3059 62
3060 62
3061 62
3062 62
3063 62
3064 62
3065 62
3066 62
3067 62
3068 62
3069 62
3070 62
3071 62
3072 62
3073 62
3074 62
3075 62
3076 62
3077 62
3078 62
3079 62
3080 62
3081 62
3082 62
3083 62
3084 62
3085 62
3086 62
3087 62
3088 62
3089 62
3090 62
3091 62
3092 62
3093 62
3094 62
3095 62
3096 62
3097 62
3098 62
3099 62
3100 62
3101 63
3102 63
3103 63
3104 63
3105 63
3106 63
3107 63
3108 63
3109 63
3110 63
3111 63
3112 63
3113 63
3114 63
3115 63
3116 63
3117 63
3118 63
3119 63
3120 63
3121 63
3122 63
3123 63
3124 63
3125 63
3126 63
3127 63
3128 63
3129 63
3130 63
3131 63
3132 63
3133 63
3134 63
3135 63
3136 63
3137 63
3138 63
3139 63
3140 63
3141 63
3142 63
3143 63
3144 63
3145 63
3146 63
3147 63
3148 63
3149 63
3150 63
3151 64
3152 64
3153 64
3154 64
3155 64
3156 64
3157 64
3158 64
3159 64
3160 64
3161 64
3162 64
3163 64
3164 64
3165 64
3166 64
3167 64
3168 64
3169 64
3170 64
3171 64
3172 64
3173 64
3174 64
3175 64
3176 64
3177 64
3178 64
3179 64
3180 64
3181 64
3182 64
3183 64
3184 64
3185 64
3186 64
3187 64
3188 64
3189 64
3190 64
3191 64
3192 64
3193 64
3194 64
3195 64
3196 64
3197 64
3198 64
3199 64
3200 64
3201 65
3202 65
3203 65
3204 65
3205 65
3206 65
3207 65
3208 65
3209 65
3210 65
3211 65
3212 65
3213 65
3214 65
3215 65
3216 65
3217 65
3218 65
3219 65
3220 65
3221 65
3222 65
3223 65
3224 65
3225 65
3226 65
3227 65
3228 65
3229 65
3230 65
3231 65
3232 65
3233 65
3234 65
3235 65
3236 65
3237 65
3238 65
3239 65
3240 65
3241 65
3242 65
3243 65
3244 65
3245 65
3246 65
3247 65
3248 65
3249 65
3250 65
3251 66
3252 66
3253 66
3254 66
3255 66
3256 66
3257 66
3258 66
3259 66
3260 66
3261 66
3262 66
3263 66
3264 66
3265 66
3266 66
3267 66
3268 66
3269 66
3270 66
3271 66
3272 66
3273 66
3274 66
3275 66
3276 66
3277 66
3278 66
3279 66
3280 66
3281 66
3282 66
3283 66
3284 66
3285 66
3286 66
3287 66
3288 66
3289 66
3290 66
3291 66
3292 66
3293 66
3294 66
3295 66
3296 66
3297 66
3298 66
3299 66
3300 66
3301 67
3302 67
3303 67
3304 67
3305 67
3306 67
3307 67
3308 67
3309 67
3310 67
3311 67
3312 67
3313 67
3314 67
3315 67
3316 67
3317 67
3318 67
3319 67
3320 67
3321 67
3322 67
3323 67
3324 67
3325 67
3326 67
3327 67
3328 67
3329 67
3330 67
3331 67
3332 67
3333 67
3334 67
3335 67
3336 67
3337 67
3338 67
3339 67
3340 67
3341 67
3342 67
3343 67
3344 67
3345 67
3346 67
3347 67
3348 67
3349 67
3350 67
3351 68
3352 68
3353 68
3354 68
3355 68
3356 68
3357 68
3358 68
3359 68
3360 68
3361 68
3362 68
3363 68
3364 68
3365 68
3366 68
3367 68
3368 68
3369 68
3370 68
3371 68
3372 68
3373 68
3374 68
3375 68
3376 68
3377 68
3378 68
3379 68
3380 68
3381 68
3382 68
3383 68
3384 68
3385 68
3386 68
3387 68
3388 68
3389 68
3390 68
3391 68
3392 68
3393 68
3394 68
3395 68
3396 68
3397 68
3398 68
3399 68
3400 68
3401 69
3402 69
3403 69
3404 69
3405 69
3406 69
3407 69
3408 69
3409 69
3410 69
3411 69
3412 69
3413 69
3414 69
3415 69
3416 69
3417 69
3418 69
3419 69
3420 69
3421 69
3422 69
3423 69
3424 69
3425 69
3426 69
3427 69
3428 69
3429 69
3430 69
3431 69
3432 69
3433 69
3434 69
3435 69
3436 69
3437 69
3438 69
3439 69
3440 69
3441 69
3442 69
3443 69
3444 69
3445 69
3446 69
3447 69
3448 69
3449 69
3450 69
3451 70
3452 70
3453 70
3454 70
3455 70
3456 70
3457 70
3458 70
3459 70
3460 70
3461 70
3462 70
3463 70
3464 70
3465 70
3466 70
3467 70
3468 70
3469 70
3470 70
3471 70
3472 70
3473 70
3474 70
3475 70
3476 70
3477 70
3478 70
3479 70
3480 70
3481 70
3482 70
3483 70
3484 70
3485 70
3486 70
3487 70
3488 70
3489 70
3490 70
3491 70
3492 70
3493 70
3494 70
3495 70
3496 70
3497 70
3498 70
3499 70
3500 70
3501 71
3502 71
3503 71
3504 71
3505 71
3506 71
3507 71
3508 71
3509 71
3510 71
3511 71
3512 71
3513 71
3514 71
3515 71
3516 71
3517 71
3518 71
3519 71
3520 71
3521 71
3522 71
3523 71
3524 71
3525 71
3526 71
3527 71
3528 71
3529 71
3530 71
3531 71
3532 71
3533 71
3534 71
3535 71
3536 71
3537 71
3538 71
3539 71
3540 71
3541 71
3542 71
3543 71
3544 71
3545 71
3546 71
3547 71
3548 71
3549 71
3550 71
3551 72
3552 72
3553 72
3554 72
3555 72
3556 72
3557 72
3558 72
3559 72
3560 72
3561 72
3562 72
3563 72
3564 72
3565 72
3566 72
3567 72
3568 72
3569 72
3570 72
3571 72
3572 72
3573 72
3574 72
3575 72
3576 72
3577 72
3578 72
3579 72
3580 72
3581 72
3582 72
3583 72
3584 72
3585 72
3586 72
3587 72
3588 72
3589 72
3590 72
3591 72
3592 72
3593 72
3594 72
3595 72
3596 72
3597 72
3598 72
3599 72
3600 72
3601 73
3602 73
3603 73
3604 73
3605 73
3606 73
3607 73
3608 73
3609 73
3610 73
3611 73
3612 73
3613 73
3614 73
3615 73
3616 73
3617 73
3618 73
3619 73
3620 73
3621 73
3622 73
3623 73
3624 73
3625 73
3626 73
3627 73
3628 73
3629 73
3630 73
3631 73
3632 73
3633 73
3634 73
3635 73
3636 73
3637 73
3638 73
3639 73
3640 73
3641 73
3642 73
3643 73
3644 73
3645 73
3646 73
3647 73
3648 73
3649 73
3650 73
3651 74
3652 74
3653 74
3654 74
3655 74
3656 74
3657 74
3658 74
3659 74
3660 74
3661 74
3662 74
3663 74
3664 74
3665 74
3666 74
3667 74
3668 74
3669 74
3670 74
3671 74
3672 74
3673 74
3674 74
3675 74
3676 74
3677 74
3678 74
3679 74
3680 74
3681 74
3682 74
3683 74
3684 74
3685 74
3686 74
3687 74
3688 74
3689 74
3690 74
3691 74
3692 74
3693 74
3694 74
3695 74
3696 74
3697 74
3698 74
3699 74
3700 74
3701 75
3702 75
3703 75
3704 75
3705 75
3706 75
3707 75
3708 75
3709 75
3710 75
3711 75
3712 75
3713 75
3714 75
3715 75
3716 75
3717 75
3718 75
3719 75
3720 75
3721 75
3722 75
3723 75
3724 75
3725 75
3726 75
3727 75
3728 75
3729 75
3730 75
3731 75
3732 75
3733 75
3734 75
3735 75
3736 75
3737 75
3738 75
3739 75
3740 75
3741 75
3742 75
3743 75
3744 75
3745 75
3746 75
3747 75
3748 75
3749 75
3750 75
3751 76
3752 76
3753 76
3754 76
3755 76
3756 76
3757 76
3758 76
3759 76
3760 76
3761 76
3762 76
3763 76
3764 76
3765 76
3766 76
3767 76
3768 76
3769 76
3770 76
3771 76
3772 76
3773 76
3774 76
3775 76
3776 76
3777 76
3778 76
3779 76
3780 76
3781 76
3782 76
3783 76
3784 76
3785 76
3786 76
3787 76
3788 76
3789 76
3790 76
3791 76
3792 76
3793 76
3794 76
3795 76
3796 76
3797 76
3798 76
3799 76
3800 76
3801 77
3802 77
3803 77
3804 77
3805 77
3806 77
3807 77
3808 77
3809 77
3810 77
3811 77
3812 77
3813 77
3814 77
3815 77
3816 77
3817 77
3818 77
3819 77
3820 77
3821 77
3822 77
3823 77
3824 77
3825 77
3826 77
3827 77
3828 77
3829 77
3830 77
3831 77
3832 77
3833 77
3834 77
3835 77
3836 77
3837 77
3838 77
3839 77
3840 77
3841 77
3842 77
3843 77
3844 77
3845 77
3846 77
3847 77
3848 77
3849 77
3850 77
3851 78
3852 78
3853 78
3854 78
3855 78
3856 78
3857 78
3858 78
3859 78
3860 78
3861 78
3862 78
3863 78
3864 78
3865 78
3866 78
3867 78
3868 78
3869 78
3870 78
3871 78
3872 78
3873 78
3874 78
3875 78
3876 78
3877 78
3878 78
3879 78
3880 78
3881 78
3882 78
3883 78
3884 78
3885 78
3886 78
3887 78
3888 78
3889 78
3890 78
3891 78
3892 78
3893 78
3894 78
3895 78
3896 78
3897 78
3898 78
3899 78
3900 78
3901 79
3902 79
3903 79
3904 79
3905 79
3906 79
3907 79
3908 79
3909 79
3910 79
3911 79
3912 79
3913 79
3914 79
3915 79
3916 79
3917 79
3918 79
3919 79
3920 79
3921 79
3922 79
3923 79
3924 79
3925 79
3926 79
3927 79
3928 79
3929 79
3930 79
3931 79
3932 79
3933 79
3934 79
3935 79
3936 79
3937 79
3938 79
3939 79
3940 79
3941 79
3942 79
3943 79
3944 79
3945 79
3946 79
3947 79
3948 79
3949 79
3950 79
3951 80
3952 80
3953 80
3954 80
3955 80
3956 80
3957 80
3958 80
3959 80
3960 80
3961 80
3962 80
3963 80
3964 80
3965 80
3966 80
3967 80
3968 80
3969 80
3970 80
3971 80
3972 80
3973 80
3974 80
3975 80
3976 80
3977 80
3978 80
3979 80
3980 80
3981 80
3982 80
3983 80
3984 80
3985 80
3986 80
3987 80
3988 80
3989 80
3990 80
3991 80
3992 80
3993 80
3994 80
3995 80
3996 80
3997 80
3998 80
3999 80
4000 80
4001 81
4002 81
4003 81
4004 81
4005 81
4006 81
4007 81
4008 81
4009 81
4010 81
4011 81
4012 81
4013 81
4014 81
4015 81
4016 81
4017 81
4018 81
4019 81
4020 81
4021 81
4022 81
4023 81
4024 81
4025 81
4026 81
4027 81
4028 81
4029 81
4030 81
4031 81
4032 81
4033 81
4034 81
4035 81
4036 81
4037 81
4038 81
4039 81
4040 81
4041 81
4042 81
4043 81
4044 81
4045 81
4046 81
4047 81
4048 81
4049 81
4050 81
4051 82
4052 82
4053 82
4054 82
4055 82
4056 82
4057 82
4058 82
4059 82
4060 82
4061 82
4062 82
4063 82
4064 82
4065 82
4066 82
4067 82
4068 82
4069 82
4070 82
4071 82
4072 82
4073 82
4074 82
4075 82
4076 82
4077 82
4078 82
4079 82
4080 82
4081 82
4082 82
4083 82
4084 82
4085 82
4086 82
4087 82
4088 82
4089 82
4090 82
4091 82
4092 82
4093 82
4094 82
4095 82
4096 82
4097 82
4098 82
4099 82
4100 82
4101 83
4102 83
4103 83
4104 83
4105 83
4106 83
4107 83
4108 83
4109 83
4110 83
4111 83
4112 83
4113 83
4114 83
4115 83
4116 83
4117 83
4118 83
4119 83
4120 83
4121 83
4122 83
4123 83
4124 83
4125 83
4126 83
4127 83
4128 83
4129 83
4130 83
4131 83
4132 83
4133 83
4134 83
4135 83
4136 83
4137 83
4138 83
4139 83
4140 83
4141 83
4142 83
4143 83
4144 83
4145 83
4146 83
4147 83
4148 83
4149 83
4150 83
4151 84
4152 84
4153 84
4154 84
4155 84
4156 84
4157 84
4158 84
4159 84
4160 84
4161 84
4162 84
4163 84
4164 84
4165 84
4166 84
4167 84
4168 84
4169 84
4170 84
4171 84
4172 84
4173 84
4174 84
4175 84
4176 84
4177 84
4178 84
4179 84
4180 84
4181 84
4182 84
4183 84
4184 84
4185 84
4186 84
4187 84
4188 84
4189 84
4190 84
4191 84
4192 84
4193 84
4194 84
4195 84
4196 84
4197 84
4198 84
4199 84
4200 84
4201 85
4202 85
4203 85
4204 85
4205 85
4206 85
4207 85
4208 85
4209 85
4210 85
4211 85
4212 85
4213 85
4214 85
4215 85
4216 85
4217 85
4218 85
4219 85
4220 85
4221 85
4222 85
4223 85
4224 85
4225 85
4226 85
4227 85
4228 85
4229 85
4230 85
4231 85
4232 85
4233 85
4234 85
4235 85
4236 85
4237 85
4238 85
4239 85
4240 85
4241 85
4242 85
4243 85
4244 85
4245 85
4246 85
4247 85
4248 85
4249 85
4250 85
4251 86
4252 86
4253 86
4254 86
4255 86
4256 86
4257 86
4258 86
4259 86
4260 86
4261 86
4262 86
4263 86
4264 86
4265 86
4266 86
4267 86
4268 86
4269 86
4270 86
4271 86
4272 86
4273 86
4274 86
4275 86
4276 86
4277 86
4278 86
4279 86
4280 86
4281 86
4282 86
4283 86
4284 86
4285 86
4286 86
4287 86
4288 86
4289 86
4290 86
4291 86
4292 86
4293 86
4294 86
4295 86
4296 86
4297 86
4298 86
4299 86
4300 86
4301 87
4302 87
4303 87
4304 87
4305 87
4306 87
4307 87
4308 87
4309 87
4310 87
4311 87
4312 87
4313 87
4314 87
4315 87
4316 87
4317 87
4318 87
4319 87
4320 87
4321 87
4322 87
4323 87
4324 87
4325 87
4326 87
4327 87
4328 87
4329 87
4330 87
4331 87
4332 87
4333 87
4334 87
4335 87
4336 87
4337 87
4338 87
4339 87
4340 87
4341 87
4342 87
4343 87
4344 87
4345 87
4346 87
4347 87
4348 87
4349 87
4350 87
4351 88
4352 88
4353 88
4354 88
4355 88
4356 88
4357 88
4358 88
4359 88
4360 88
4361 88
4362 88
4363 88
4364 88
4365 88
4366 88
4367 88
4368 88
4369 88
4370 88
4371 88
4372 88
4373 88
4374 88
4375 88
4376 88
4377 88
4378 88
4379 88
4380 88
4381 88
4382 88
4383 88
4384 88
4385 88
4386 88
4387 88
4388 88
4389 88
4390 88
4391 88
4392 88
4393 88
4394 88
4395 88
4396 88
4397 88
4398 88
4399 88
4400 88
4401 89
4402 89
4403 89
4404 89
4405 89
4406 89
4407 89
4408 89
4409 89
4410 89
4411 89
4412 89
4413 89
4414 89
4415 89
4416 89
4417 89
4418 89
4419 89
4420 89
4421 89
4422 89
4423 89
4424 89
4425 89
4426 89
4427 89
4428 89
4429 89
4430 89
4431 89
4432 89
4433 89
4434 89
4435 89
4436 89
4437 89
4438 89
4439 89
4440 89
4441 89
4442 89
4443 89
4444 89
4445 89
4446 89
4447 89
4448 89
4449 89
4450 89
4451 90
4452 90
4453 90
4454 90
4455 90
4456 90
4457 90
4458 90
4459 90
4460 90
4461 90
4462 90
4463 90
4464 90
4465 90
4466 90
4467 90
4468 90
4469 90
4470 90
4471 90
4472 90
4473 90
4474 90
4475 90
4476 90
4477 90
4478 90
4479 90
4480 90
4481 90
4482 90
4483 90
4484 90
4485 90
4486 90
4487 90
4488 90
4489 90
4490 90
4491 90
4492 90
4493 90
4494 90
4495 90
4496 90
4497 90
4498 90
4499 90
4500 90
4501 91
4502 91
4503 91
4504 91
4505 91
4506 91
4507 91
4508 91
4509 91
4510 91
4511 91
4512 91
4513 91
4514 91
4515 91
4516 91
4517 91
4518 91
4519 91
4520 91
4521 91
4522 91
4523 91
4524 91
4525 91
4526 91
4527 91
4528 91
4529 91
4530 91
4531 91
4532 91
4533 91
4534 91
4535 91
4536 91
4537 91
4538 91
4539 91
4540 91
4541 91
4542 91
4543 91
4544 91
4545 91
4546 91
4547 91
4548 91
4549 91
4550 91
4551 92
4552 92
4553 92
4554 92
4555 92
4556 92
4557 92
4558 92
4559 92
4560 92
4561 92
4562 92
4563 92
4564 92
4565 92
4566 92
4567 92
4568 92
4569 92
4570 92
4571 92
4572 92
4573 92
4574 92
4575 92
4576 92
4577 92
4578 92
4579 92
4580 92
4581 92
4582 92
4583 92
4584 92
4585 92
4586 92
4587 92
4588 92
4589 92
4590 92
4591 92
4592 92
4593 92
4594 92
4595 92
4596 92
4597 92
4598 92
4599 92
4600 92
4601 93
4602 93
4603 93
4604 93
4605 93
4606 93
4607 93
4608 93
4609 93
4610 93
4611 93
4612 93
4613 93
4614 93
4615 93
4616 93
4617 93
4618 93
4619 93
4620 93
4621 93
4622 93
4623 93
4624 93
4625 93
4626 93
4627 93
4628 93
4629 93
4630 93
4631 93
4632 93
4633 93
4634 93
4635 93
4636 93
4637 93
4638 93
4639 93
4640 93
4641 93
4642 93
4643 93
4644 93
4645 93
4646 93
4647 93
4648 93
4649 93
4650 93
4651 94
4652 94
4653 94
4654 94
4655 94
4656 94
4657 94
4658 94
4659 94
4660 94
4661 94
4662 94
4663 94
4664 94
4665 94
4666 94
4667 94
4668 94
4669 94
4670 94
4671 94
4672 94
4673 94
4674 94
4675 94
4676 94
4677 94
4678 94
4679 94
4680 94
4681 94
4682 94
4683 94
4684 94
4685 94
4686 94
4687 94
4688 94
4689 94
4690 94
4691 94
4692 94
4693 94
4694 94
4695 94
4696 94
4697 94
4698 94
4699 94
4700 94
4701 95
4702 95
4703 95
4704 95
4705 95
4706 95
4707 95
4708 95
4709 95
4710 95
4711 95
4712 95
4713 95
4714 95
4715 95
4716 95
4717 95
4718 95
4719 95
4720 95
4721 95
4722 95
4723 95
4724 95
4725 95
4726 95
4727 95
4728 95
4729 95
4730 95
4731 95
4732 95
4733 95
4734 95
4735 95
4736 95
4737 95
4738 95
4739 95
4740 95
4741 95
4742 95
4743 95
4744 95
4745 95
4746 95
4747 95
4748 95
4749 95
4750 95
4751 96
4752 96
4753 96
4754 96
4755 96
4756 96
4757 96
4758 96
4759 96
4760 96
4761 96
4762 96
4763 96
4764 96
4765 96
4766 96
4767 96
4768 96
4769 96
4770 96
4771 96
4772 96
4773 96
4774 96
4775 96
4776 96
4777 96
4778 96
4779 96
4780 96
4781 96
4782 96
4783 96
4784 96
4785 96
4786 96
4787 96
4788 96
4789 96
4790 96
4791 96
4792 96
4793 96
4794 96
4795 96
4796 96
4797 96
4798 96
4799 96
4800 96
4801 97
4802 97
4803 97
4804 97
4805 97
4806 97
4807 97
4808 97
4809 97
4810 97
4811 97
4812 97
4813 97
4814 97
4815 97
4816 97
4817 97
4818 97
4819 97
4820 97
4821 97
4822 97
4823 97
4824 97
4825 97
4826 97
4827 97
4828 97
4829 97
4830 97
4831 97
4832 97
4833 97
4834 97
4835 97
4836 97
4837 97
4838 97
4839 97
4840 97
4841 97
4842 97
4843 97
4844 97
4845 97
4846 97
4847 97
4848 97
4849 97
4850 97
4851 98
4852 98
4853 98
4854 98
4855 98
4856 98
4857 98
4858 98
4859 98
4860 98
4861 98
4862 98
4863 98
4864 98
4865 98
4866 98
4867 98
4868 98
4869 98
4870 98
4871 98
4872 98
4873 98
4874 98
4875 98
4876 98
4877 98
4878 98
4879 98
4880 98
4881 98
4882 98
4883 98
4884 98
4885 98
4886 98
4887 98
4888 98
4889 98
4890 98
4891 98
4892 98
4893 98
4894 98
4895 98
4896 98
4897 98
4898 98
4899 98
4900 98
4901 99
4902 99
4903 99
4904 99
4905 99
4906 99
4907 99
4908 99
4909 99
4910 99
4911 99
4912 99
4913 99
4914 99
4915 99
4916 99
4917 99
4918 99
4919 99
4920 99
4921 99
4922 99
4923 99
4924 99
4925 99
4926 99
4927 99
4928 99
4929 99
4930 99
4931 99
4932 99
4933 99
4934 99
4935 99
4936 99
4937 99
4938 99
4939 99
4940 99
4941 99
4942 99
4943 99
4944 99
4945 99
4946 99
4947 99
4948 99
4949 99
4950 99
4951 100
4952 100
4953 100
4954 100
4955 100
4956 100
4957 100
4958 100
4959 100
4960 100
4961 100
4962 100
4963 100
4964 100
4965 100
4966 100
4967 100
4968 100
4969 100
4970 100
4971 100
4972 100
4973 100
4974 100
4975 100
4976 100
4977 100
4978 100
4979 100
4980 100
4981 100
4982 100
4983 100
4984 100
4985 100
4986 100
4987 100
4988 100
4989 100
4990 100
4991 100
4992 100
4993 100
4994 100
4995 100
4996 100
4997 100
4998 100
4999 100
5000 100
5001 101
5002 101
5003 101
5004 101
5005 101
5006 101
5007 101
5008 101
5009 101
5010 101
5011 101
5012 101
5013 101
5014 101
5015 101
5016 101
5017 101
5018 101
5019 101
5020 101
5021 101
5022 101
5023 101
5024 101
5025 101
5026 101
5027 101
5028 101
5029 101
5030 101
5031 101
5032 101
5033 101
5034 101
5035 101
5036 101
5037 101
5038 101
5039 101
5040 101
5041 101
5042 101
5043 101
5044 101
5045 101
5046 101
5047 101
5048 101
5049 101
5050 101
5051 102
5052 102
5053 102
5054 102
5055 102
5056 102
5057 102
5058 102
5059 102
5060 102
5061 102
5062 102
5063 102
5064 102
5065 102
5066 102
5067 102
5068 102
5069 102
5070 102
5071 102
5072 102
5073 102
5074 102
5075 102
5076 102
5077 102
5078 102
5079 102
5080 102
5081 102
5082 102
5083 102
5084 102
5085 102
5086 102
5087 102
5088 102
5089 102
5090 102
5091 102
5092 102
5093 102
5094 102
5095 102
5096 102
5097 102
5098 102
5099 102
5100 102
5101 103
5102 103
5103 103
5104 103
5105 103
5106 103
5107 103
5108 103
5109 103
5110 103
5111 103
5112 103
5113 103
5114 103
5115 103
5116 103
5117 103
5118 103
5119 103
5120 103
5121 103
5122 103
5123 103
5124 103
5125 103
5126 103
5127 103
5128 103
5129 103
5130 103
5131 103
5132 103
5133 103
5134 103
5135 103
5136 103
5137 103
5138 103
5139 103
5140 103
5141 103
5142 103
5143 103
5144 103
5145 103
5146 103
5147 103
5148 103
5149 103
5150 103
5151 104
5152 104
5153 104
5154 104
5155 104
5156 104
5157 104
5158 104
5159 104
5160 104
5161 104
5162 104
5163 104
5164 104
5165 104
5166 104
5167 104
5168 104
5169 104
5170 104
5171 104
5172 104
5173 104
5174 104
5175 104
5176 104
5177 104
5178 104
5179 104
5180 104
5181 104
5182 104
5183 104
5184 104
5185 104
5186 104
5187 104
5188 104
5189 104
5190 104
5191 104
5192 104
5193 104
5194 104
5195 104
5196 104
5197 104
5198 104
5199 104
5200 104
5201 105
5202 105
5203 105
5204 105
5205 105
5206 105
5207 105
5208 105
5209 105
5210 105
5211 105
5212 105
5213 105
5214 105
5215 105
5216 105
5217 105
5218 105
5219 105
5220 105
5221 105
5222 105
5223 105
5224 105
5225 105
5226 105
5227 105
5228 105
5229 105
5230 105
5231 105
5232 105
5233 105
5234 105
5235 105
5236 105
5237 105
5238 105
5239 105
5240 105
5241 105
5242 105
5243 105
5244 105
5245 105
5246 105
5247 105
5248 105
5249 105
5250 105
5251 106
5252 106
5253 106
5254 106
5255 106
5256 106
5257 106
5258 106
5259 106
5260 106
5261 106
5262 106
5263 106
5264 106
5265 106
5266 106
5267 106
5268 106
5269 106
5270 106
5271 106
5272 106
5273 106
5274 106
5275 106
5276 106
5277 106
5278 106
5279 106
5280 106
5281 106
5282 106
5283 106
5284 106
5285 106
5286 106
5287 106
5288 106
5289 106
5290 106
5291 106
5292 106
5293 106
5294 106
5295 106
5296 106
5297 106
5298 106
5299 106
5300 106
5301 107
5302 107
5303 107
5304 107
5305 107
5306 107
5307 107
5308 107
5309 107
5310 107
5311 107
5312 107
5313 107
5314 107
5315 107
5316 107
5317 107
5318 107
5319 107
5320 107
5321 107
5322 107
5323 107
5324 107
5325 107
5326 107
5327 107
5328 107
5329 107
5330 107
5331 107
5332 107
5333 107
5334 107
5335 107
5336 107
5337 107
5338 107
5339 107
5340 107
5341 107
5342 107
5343 107
5344 107
5345 107
5346 107
5347 107
5348 107
5349 107
5350 107
5351 108
5352 108
5353 108
5354 108
5355 108
5356 108
5357 108
5358 108
5359 108
5360 108
5361 108
5362 108
5363 108
5364 108
5365 108
5366 108
5367 108
5368 108
5369 108
5370 108
5371 108
5372 108
5373 108
5374 108
5375 108
5376 108
5377 108
5378 108
5379 108
5380 108
5381 108
5382 108
5383 108
5384 108
5385 108
5386 108
5387 108
5388 108
5389 108
5390 108
5391 108
5392 108
5393 108
5394 108
5395 108
5396 108
5397 108
5398 108
5399 108
5400 108
5401 109
5402 109
5403 109
5404 109
5405 109
5406 109
5407 109
5408 109
5409 109
5410 109
5411 109
5412 109
5413 109
5414 109
5415 109
5416 109
5417 109
5418 109
5419 109
5420 109
5421 109
5422 109
5423 109
5424 109
5425 109
5426 109
5427 109
5428 109
5429 109
5430 109
5431 109
5432 109
5433 109
5434 109
5435 109
5436 109
5437 109
5438 109
5439 109
5440 109
5441 109
5442 109
5443 109
5444 109
5445 109
5446 109
5447 109
5448 109
5449 109
5450 109
5451 110
5452 110
5453 110
5454 110
5455 110
5456 110
5457 110
5458 110
5459 110
5460 110
5461 110
5462 110
5463 110
5464 110
5465 110
5466 110
5467 110
5468 110
5469 110
5470 110
5471 110
5472 110
5473 110
5474 110
5475 110
5476 110
5477 110
5478 110
5479 110
5480 110
5481 110
5482 110
5483 110
5484 110
5485 110
5486 110
5487 110
5488 110
5489 110
5490 110
5491 110
5492 110
5493 110
5494 110
5495 110
5496 110
5497 110
5498 110
5499 110
5500 110
5501 111
5502 111
5503 111
5504 111
5505 111
5506 111
5507 111
5508 111
5509 111
5510 111
5511 111
5512 111
5513 111
5514 111
5515 111
5516 111
5517 111
5518 111
5519 111
5520 111
5521 111
5522 111
5523 111
5524 111
5525 111
5526 111
5527 111
5528 111
5529 111
5530 111
5531 111
5532 111
5533 111
5534 111
5535 111
5536 111
5537 111
5538 111
5539 111
5540 111
5541 111
5542 111
5543 111
5544 111
5545 111
5546 111
5547 111
5548 111
5549 111
5550 111
5551 112
5552 112
5553 112
5554 112
5555 112
5556 112
5557 112
5558 112
5559 112
5560 112
5561 112
5562 112
5563 112
5564 112
5565 112
5566 112
5567 112
5568 112
5569 112
5570 112
5571 112
5572 112
5573 112
5574 112
5575 112
5576 112
5577 112
5578 112
5579 112
5580 112
5581 112
5582 112
5583 112
5584 112
5585 112
5586 112
5587 112
5588 112
5589 112
5590 112
5591 112
5592 112
5593 112
5594 112
5595 112
5596 112
5597 112
5598 112
5599 112
5600 112
5601 113
5602 113
5603 113
5604 113
5605 113
5606 113
5607 113
5608 113
5609 113
5610 113
5611 113
5612 113
5613 113
5614 113
5615 113
5616 113
5617 113
5618 113
5619 113
5620 113
5621 113
5622 113
5623 113
5624 113
5625 113
5626 113
5627 113
5628 113
5629 113
5630 113
5631 113
5632 113
5633 113
5634 113
5635 113
5636 113
5637 113
5638 113
5639 113
5640 113
5641 113
5642 113
5643 113
5644 113
5645 113
5646 113
5647 113
5648 113
5649 113
5650 113
5651 114
5652 114
5653 114
5654 114
5655 114
5656 114
5657 114
5658 114
5659 114
5660 114
5661 114
5662 114
5663 114
5664 114
5665 114
5666 114
5667 114
5668 114
5669 114
5670 114
5671 114
5672 114
5673 114
5674 114
5675 114
5676 114
5677 114
5678 114
5679 114
5680 114
5681 114
5682 114
5683 114
5684 114
5685 114
5686 114
5687 114
5688 114
5689 114
5690 114
5691 114
5692 114
5693 114
5694 114
5695 114
5696 114
5697 114
5698 114
5699 114
5700 114
5701 115
5702 115
5703 115
5704 115
5705 115
5706 115
5707 115
5708 115
5709 115
5710 115
5711 115
5712 115
5713 115
5714 115
5715 115
5716 115
5717 115
5718 115
5719 115
5720 115
5721 115
5722 115
5723 115
5724 115
5725 115
5726 115
5727 115
5728 115
5729 115
5730 115
5731 115
5732 115
5733 115
5734 115
5735 115
5736 115
5737 115
5738 115
5739 115
5740 115
5741 115
5742 115
5743 115
5744 115
5745 115
5746 115
5747 115
5748 115
5749 115
5750 115
5751 116
5752 116
5753 116
5754 116
5755 116
5756 116
5757 116
5758 116
5759 116
5760 116
5761 116
5762 116
5763 116
5764 116
5765 116
5766 116
5767 116
5768 116
5769 116
5770 116
5771 116
5772 116
5773 116
5774 116
5775 116
5776 116
5777 116
5778 116
5779 116
5780 116
5781 116
5782 116
5783 116
5784 116
5785 116
5786 116
5787 116
5788 116
5789 116
5790 116
5791 116
5792 116
5793 116
5794 116
5795 116
5796 116
5797 116
5798 116
5799 116
5800 116
5801 117
5802 117
5803 117
5804 117
5805 117
5806 117
5807 117
5808 117
5809 117
5810 117
5811 117
5812 117
5813 117
5814 117
5815 117
5816 117
5817 117
5818 117
5819 117
5820 117
5821 117
5822 117
5823 117
5824 117
5825 117
5826 117
5827 117
5828 117
5829 117
5830 117
5831 117
5832 117
5833 117
5834 117
5835 117
5836 117
5837 117
5838 117
5839 117
5840 117
5841 117
5842 117
5843 117
5844 117
5845 117
5846 117
5847 117
5848 117
5849 117
5850 117
5851 118
5852 118
5853 118
5854 118
5855 118
5856 118
5857 118
5858 118
5859 118
5860 118
5861 118
5862 118
5863 118
5864 118
5865 118
5866 118
5867 118
5868 118
5869 118
5870 118
5871 118
5872 118
5873 118
5874 118
5875 118
5876 118
5877 118
5878 118
5879 118
5880 118
5881 118
5882 118
5883 118
5884 118
5885 118
5886 118
5887 118
5888 118
5889 118
5890 118
5891 118
5892 118
5893 118
5894 118
5895 118
5896 118
5897 118
5898 118
5899 118
5900 118
5901 119
5902 119
5903 119
5904 119
5905 119
5906 119
5907 119
5908 119
5909 119
5910 119
5911 119
5912 119
5913 119
5914 119
5915 119
5916 119
5917 119
5918 119
5919 119
5920 119
5921 119
5922 119
5923 119
5924 119
5925 119
5926 119
5927 119
5928 119
5929 119
5930 119
5931 119
5932 119
5933 119
5934 119
5935 119
5936 119
5937 119
5938 119
5939 119
5940 119
5941 119
5942 119
5943 119
5944 119
5945 119
5946 119
5947 119
5948 119
5949 119
5950 119
5951 120
5952 120
5953 120
5954 120
5955 120
5956 120
5957 120
5958 120
5959 120
5960 120
5961 120
5962 120
5963 120
5964 120
5965 120
5966 120
5967 120
5968 120
5969 120
5970 120
5971 120
5972 120
5973 120
5974 120
5975 120
5976 120
5977 120
5978 120
5979 120
5980 120
5981 120
5982 120
5983 120
5984 120
5985 120
5986 120
5987 120
5988 120
5989 120
5990 120
5991 120
5992 120
5993 120
5994 120
5995 120
5996 120
5997 120
5998 120
5999 120
6000 120
6001 121
6002 121
6003 121
6004 121
6005 121
6006 121
6007 121
6008 121
6009 121
6010 121
6011 121
6012 121
6013 121
6014 121
6015 121
6016 121
6017 121
6018 121
6019 121
6020 121
6021 121
6022 121
6023 121
6024 121
6025 121
6026 121
6027 121
6028 121
6029 121
6030 121
6031 121
6032 121
6033 121
6034 121
6035 121
6036 121
6037 121
6038 121
6039 121
6040 121
6041 121
6042 121
6043 121
6044 121
6045 121
6046 121
6047 121
6048 121
6049 121
6050 121
6051 122
6052 122
6053 122
6054 122
6055 122
6056 122
6057 122
6058 122
6059 122
6060 122
6061 122
6062 122
6063 122
6064 122
6065 122
6066 122
6067 122
6068 122
6069 122
6070 122
6071 122
6072 122
6073 122
6074 122
6075 122
6076 122
6077 122
6078 122
6079 122
6080 122
6081 122
6082 122
6083 122
6084 122
6085 122
6086 122
6087 122
6088 122
6089 122
6090 122
6091 122
6092 122
6093 122
6094 122
6095 122
6096 122
6097 122
6098 122
6099 122
6100 122
6101 123
6102 123
6103 123
6104 123
6105 123
6106 123
6107 123
6108 123
6109 123
6110 123
6111 123
6112 123
6113 123
6114 123
6115 123
6116 123
6117 123
6118 123
6119 123
6120 123
6121 123
6122 123
6123 123
6124 123
6125 123
6126 123
6127 123
6128 123
6129 123
6130 123
6131 123
6132 123
6133 123
6134 123
6135 123
6136 123
6137 123
6138 123
6139 123
6140 123
6141 123
6142 123
6143 123
6144 123
6145 123
6146 123
6147 123
6148 123
6149 123
6150 123
6151 124
6152 124
6153 124
6154 124
6155 124
6156 124
6157 124
6158 124
6159 124
6160 124
6161 124
6162 124
6163 124
6164 124
6165 124
6166 124
6167 124
6168 124
6169 124
6170 124
6171 124
6172 124
6173 124
6174 124
6175 124
6176 124
6177 124
6178 124
6179 124
6180 124
6181 124
6182 124
6183 124
6184 124
6185 124
6186 124
6187 124
6188 124
6189 124
6190 124
6191 124
6192 124
6193 124
6194 124
6195 124
6196 124
6197 124
6198 124
6199 124
6200 124
6201 125
6202 125
6203 125
6204 125
6205 125
6206 125
6207 125
6208 125
6209 125
6210 125
6211 125
6212 125
6213 125
6214 125
6215 125
6216 125
6217 125
6218 125
6219 125
6220 125
6221 125
6222 125
6223 125
6224 125
6225 125
6226 125
6227 125
6228 125
6229 125
6230 125
6231 125
6232 125
6233 125
6234 125
6235 125
6236 125
6237 125
6238 125
6239 125
6240 125
6241 125
6242 125
6243 125
6244 125
6245 125
6246 125
6247 125
6248 125
6249 125
6250 125
6251 126
6252 126
6253 126
6254 126
6255 126
6256 126
6257 126
6258 126
6259 126
6260 126
6261 126
6262 126
6263 126
6264 126
6265 126
6266 126
6267 126
6268 126
6269 126
6270 126
6271 126
6272 126
6273 126
6274 126
6275 126
6276 126
6277 126
6278 126
6279 126
6280 126
6281 126
6282 126
6283 126
6284 126
6285 126
6286 126
6287 126
6288 126
6289 126
6290 126
6291 126
6292 126
6293 126
6294 126
6295 126
6296 126
6297 126
6298 126
6299 126
6300 126
6301 127
6302 127
6303 127
6304 127
6305 127
6306 127
6307 127
6308 127
6309 127
6310 127
6311 127
6312 127
6313 127
6314 127
6315 127
6316 127
6317 127
6318 127
6319 127
6320 127
6321 127
6322 127
6323 127
6324 127
6325 127
6326 127
6327 127
6328 127
6329 127
6330 127
6331 127
6332 127
6333 127
6334 127
6335 127
6336 127
6337 127
6338 127
6339 127
6340 127
6341 127
6342 127
6343 127
6344 127
6345 127
6346 127
6347 127
6348 127
6349 127
6350 127
6351 128
6352 128
6353 128
6354 128
6355 128
6356 128
6357 128
6358 128
6359 128
6360 128
6361 128
6362 128
6363 128
6364 128
6365 128
6366 128
6367 128
6368 128
6369 128
6370 128
6371 128
6372 128
6373 128
6374 128
6375 128
6376 128
6377 128
6378 128
6379 128
6380 128
6381 128
6382 128
6383 128
6384 128
6385 128
6386 128
6387 128
6388 128
6389 128
6390 128
6391 128
6392 128
6393 128
6394 128
6395 128
6396 128
6397 128
6398 128
6399 128
6400 128
6401 129
6402 129
6403 129
6404 129
6405 129
6406 129
6407 129
6408 129
6409 129
6410 129
6411 129
6412 129
6413 129
6414 129
6415 129
6416 129
6417 129
6418 129
6419 129
6420 129
6421 129
6422 129
6423 129
6424 129
6425 129
6426 129
6427 129
6428 129
6429 129
6430 129
6431 129
6432 129
6433 129
6434 129
6435 129
6436 129
6437 129
6438 129
6439 129
6440 129
6441 129
6442 129
6443 129
6444 129
6445 129
6446 129
6447 129
6448 129
6449 129
6450 129
6451 130
6452 130
6453 130
6454 130
6455 130
6456 130
6457 130
6458 130
6459 130
6460 130
6461 130
6462 130
6463 130
6464 130
6465 130
6466 130
6467 130
6468 130
6469 130
6470 130
6471 130
6472 130
6473 130
6474 130
6475 130
6476 130
6477 130
6478 130
6479 130
6480 130
6481 130
6482 130
6483 130
6484 130
6485 130
6486 130
6487 130
6488 130
6489 130
6490 130
6491 130
6492 130
6493 130
6494 130
6495 130
6496 130
6497 130
6498 130
6499 130
6500 130
6501 131
6502 131
6503 131
6504 131
6505 131
6506 131
6507 131
6508 131
6509 131
6510 131
6511 131
6512 131
6513 131
6514 131
6515 131
6516 131
6517 131
6518 131
6519 131
6520 131
6521 131
6522 131
6523 131
6524 131
6525 131
6526 131
6527 131
6528 131
6529 131
6530 131
6531 131
6532 131
6533 131
6534 131
6535 131
6536 131
6537 131
6538 131
6539 131
6540 131
6541 131
6542 131
6543 131
6544 131
6545 131
6546 131
6547 131
6548 131
6549 131
6550 131
6551 132
6552 132
6553 132
6554 132
6555 132
6556 132
6557 132
6558 132
6559 132
6560 132
6561 132
6562 132
6563 132
6564 132
6565 132
6566 132
6567 132
6568 132
6569 132
6570 132
6571 132
6572 132
6573 132
6574 132
6575 132
6576 132
6577 132
6578 132
6579 132
6580 132
6581 132
6582 132
6583 132
6584 132
6585 132
6586 132
6587 132
6588 132
6589 132
6590 132
6591 132
6592 132
6593 132
6594 132
6595 132
6596 132
6597 132
6598 132
6599 132
6600 132
6601 133
6602 133
6603 133
6604 133
6605 133
6606 133
6607 133
6608 133
6609 133
6610 133
6611 133
6612 133
6613 133
6614 133
6615 133
6616 133
6617 133
6618 133
6619 133
6620 133
6621 133
6622 133
6623 133
6624 133
6625 133
6626 133
6627 133
6628 133
6629 133
6630 133
6631 133
6632 133
6633 133
6634 133
6635 133
6636 133
6637 133
6638 133
6639 133
6640 133
6641 133
6642 133
6643 133
6644 133
6645 133
6646 133
6647 133
6648 133
6649 133
6650 133
6651 134
6652 134
6653 134
6654 134
6655 134
6656 134
6657 134
6658 134
6659 134
6660 134
6661 134
6662 134
6663 134
6664 134
6665 134
6666 134
6667 134
6668 134
6669 134
6670 134
6671 134
6672 134
6673 134
6674 134
6675 134
6676 134
6677 134
6678 134
6679 134
6680 134
6681 134
6682 134
6683 134
6684 134
6685 134
6686 134
6687 134
6688 134
6689 134
6690 134
6691 134
6692 134
6693 134
6694 134
6695 134
6696 134
6697 134
6698 134
6699 134
6700 134
6701 135
6702 135
6703 135
6704 135
6705 135
6706 135
6707 135
6708 135
6709 135
6710 135
6711 135
6712 135
6713 135
6714 135
6715 135
6716 135
6717 135
6718 135
6719 135
6720 135
6721 135
6722 135
6723 135
6724 135
6725 135
6726 135
6727 135
6728 135
6729 135
6730 135
6731 135
6732 135
6733 135
6734 135
6735 135
6736 135
6737 135
6738 135
6739 135
6740 135
6741 135
6742 135
6743 135
6744 135
6745 135
6746 135
6747 135
6748 135
6749 135
6750 135
6751 136
6752 136
6753 136
6754 136
6755 136
6756 136
6757 136
6758 136
6759 136
6760 136
6761 136
6762 136
6763 136
6764 136
6765 136
6766 136
6767 136
6768 136
6769 136
6770 136
6771 136
6772 136
6773 136
6774 136
6775 136
6776 136
6777 136
6778 136
6779 136
6780 136
6781 136
6782 136
6783 136
6784 136
6785 136
6786 136
6787 136
6788 136
6789 136
6790 136
6791 136
6792 136
6793 136
6794 136
6795 136
6796 136
6797 136
6798 136
6799 136
6800 136
6801 137
6802 137
6803 137
6804 137
6805 137
6806 137
6807 137
6808 137
6809 137
6810 137
6811 137
6812 137
6813 137
6814 137
6815 137
6816 137
6817 137
6818 137
6819 137
6820 137
6821 137
6822 137
6823 137
6824 137
6825 137
6826 137
6827 137
6828 137
6829 137
6830 137
6831 137
6832 137
6833 137
6834 137
6835 137
6836 137
6837 137
6838 137
6839 137
6840 137
6841 137
6842 137
6843 137
6844 137
6845 137
6846 137
6847 137
6848 137
6849 137
6850 137
6851 138
6852 138
6853 138
6854 138
6855 138
6856 138
6857 138
6858 138
6859 138
6860 138
6861 138
6862 138
6863 138
6864 138
6865 138
6866 138
6867 138
6868 138
6869 138
6870 138
6871 138
6872 138
6873 138
6874 138
6875 138
6876 138
6877 138
6878 138
6879 138
6880 138
6881 138
6882 138
6883 138
6884 138
6885 138
6886 138
6887 138
6888 138
6889 138
6890 138
6891 138
6892 138
6893 138
6894 138
6895 138
6896 138
6897 138
6898 138
6899 138
6900 138
6901 139
6902 139
6903 139
6904 139
6905 139
6906 139
6907 139
6908 139
6909 139
6910 139
6911 139
6912 139
6913 139
6914 139
6915 139
6916 139
6917 139
6918 139
6919 139
6920 139
6921 139
6922 139
6923 139
6924 139
6925 139
6926 139
6927 139
6928 139
6929 139
6930 139
6931 139
6932 139
6933 139
6934 139
6935 139
6936 139
6937 139
6938 139
6939 139
6940 139
6941 139
6942 139
6943 139
6944 139
6945 139
6946 139
6947 139
6948 139
6949 139
6950 139
6951 140
6952 140
6953 140
6954 140
6955 140
6956 140
6957 140
6958 140
6959 140
6960 140
6961 140
6962 140
6963 140
6964 140
6965 140
6966 140
6967 140
6968 140
6969 140
6970 140
6971 140
6972 140
6973 140
6974 140
6975 140
6976 140
6977 140
6978 140
6979 140
6980 140
6981 140
6982 140
6983 140
6984 140
6985 140
6986 140
6987 140
6988 140
6989 140
6990 140
6991 140
6992 140
6993 140
6994 140
6995 140
6996 140
6997 140
6998 140
6999 140
7000 140
7001 141
7002 141
7003 141
7004 141
7005 141
7006 141
7007 141
7008 141
7009 141
7010 141
7011 141
7012 141
7013 141
7014 141
7015 141
7016 141
7017 141
7018 141
7019 141
7020 141
7021 141
7022 141
7023 141
7024 141
7025 141
7026 141
7027 141
7028 141
7029 141
7030 141
7031 141
7032 141
7033 141
7034 141
7035 141
7036 141
7037 141
7038 141
7039 141
7040 141
7041 141
7042 141
7043 141
7044 141
7045 141
7046 141
7047 141
7048 141
7049 141
7050 141
7051 142
7052 142
7053 142
7054 142
7055 142
7056 142
7057 142
7058 142
7059 142
7060 142
7061 142
7062 142
7063 142
7064 142
7065 142
7066 142
7067 142
7068 142
7069 142
7070 142
7071 142
7072 142
7073 142
7074 142
7075 142
7076 142
7077 142
7078 142
7079 142
7080 142
7081 142
7082 142
7083 142
7084 142
7085 142
7086 142
7087 142
7088 142
7089 142
7090 142
7091 142
7092 142
7093 142
7094 142
7095 142
7096 142
7097 142
7098 142
7099 142
7100 142
7101 143
7102 143
7103 143
7104 143
7105 143
7106 143
7107 143
7108 143
7109 143
7110 143
7111 143
7112 143
7113 143
7114 143
7115 143
7116 143
7117 143
7118 143
7119 143
7120 143
7121 143
7122 143
7123 143
7124 143
7125 143
7126 143
7127 143
7128 143
7129 143
7130 143
7131 143
7132 143
7133 143
7134 143
7135 143
7136 143
7137 143
7138 143
7139 143
7140 143
7141 143
7142 143
7143 143
7144 143
7145 143
7146 143
7147 143
7148 143
7149 143
7150 143
7151 144
7152 144
7153 144
7154 144
7155 144
7156 144
7157 144
7158 144
7159 144
7160 144
7161 144
7162 144
7163 144
7164 144
7165 144
7166 144
7167 144
7168 144
7169 144
7170 144
7171 144
7172 144
7173 144
7174 144
7175 144
7176 144
7177 144
7178 144
7179 144
7180 144
7181 144
7182 144
7183 144
7184 144
7185 144
7186 144
7187 144
7188 144
7189 144
7190 144
7191 144
7192 144
7193 144
7194 144
7195 144
7196 144
7197 144
7198 144
7199 144
7200 144
7201 145
7202 145
7203 145
7204 145
7205 145
7206 145
7207 145
7208 145
7209 145
7210 145
7211 145
7212 145
7213 145
7214 145
7215 145
7216 145
7217 145
7218 145
7219 145
7220 145
7221 145
7222 145
7223 145
7224 145
7225 145
7226 145
7227 145
7228 145
7229 145
7230 145
7231 145
7232 145
7233 145
7234 145
7235 145
7236 145
7237 145
7238 145
7239 145
7240 145
7241 145
7242 145
7243 145
7244 145
7245 145
7246 145
7247 145
7248 145
7249 145
7250 145
7251 146
7252 146
7253 146
7254 146
7255 146
7256 146
7257 146
7258 146
7259 146
7260 146
7261 146
7262 146
7263 146
7264 146
7265 146
7266 146
7267 146
7268 146
7269 146
7270 146
7271 146
7272 146
7273 146
7274 146
7275 146
7276 146
7277 146
7278 146
7279 146
7280 146
7281 146
7282 146
7283 146
7284 146
7285 146
7286 146
7287 146
7288 146
7289 146
7290 146
7291 146
7292 146
7293 146
7294 146
7295 146
7296 146
7297 146
7298 146
7299 146
7300 146
7301 147
7302 147
7303 147
7304 147
7305 147
7306 147
7307 147
7308 147
7309 147
7310 147
7311 147
7312 147
7313 147
7314 147
7315 147
7316 147
7317 147
7318 147
7319 147
7320 147
7321 147
7322 147
7323 147
7324 147
7325 147
7326 147
7327 147
7328 147
7329 147
7330 147
7331 147
7332 147
7333 147
7334 147
7335 147
7336 147
7337 147
7338 147
7339 147
7340 147
7341 147
7342 147
7343 147
7344 147
7345 147
7346 147
7347 147
7348 147
7349 147
7350 147
7351 148
7352 148
7353 148
7354 148
7355 148
7356 148
7357 148
7358 148
7359 148
7360 148
7361 148
7362 148
7363 148
7364 148
7365 148
7366 148
7367 148
7368 148
7369 148
7370 148
7371 148
7372 148
7373 148
7374 148
7375 148
7376 148
7377 148
7378 148
7379 148
7380 148
7381 148
7382 148
7383 148
7384 148
7385 148
7386 148
7387 148
7388 148
7389 148
7390 148
7391 148
7392 148
7393 148
7394 148
7395 148
7396 148
7397 148
7398 148
7399 148
7400 148
7401 149
7402 149
7403 149
7404 149
7405 149
7406 149
7407 149
7408 149
7409 149
7410 149
7411 149
7412 149
7413 149
7414 149
7415 149
7416 149
7417 149
7418 149
7419 149
7420 149
7421 149
7422 149
7423 149
7424 149
7425 149
7426 149
7427 149
7428 149
7429 149
7430 149
7431 149
7432 149
7433 149
7434 149
7435 149
7436 149
7437 149
7438 149
7439 149
7440 149
7441 149
7442 149
7443 149
7444 149
7445 149
7446 149
7447 149
7448 149
7449 149
7450 149
7451 150
7452 150
7453 150
7454 150
7455 150
7456 150
7457 150
7458 150
7459 150
7460 150
7461 150
7462 150
7463 150
7464 150
7465 150
7466 150
7467 150
7468 150
7469 150
7470 150
7471 150
7472 150
7473 150
7474 150
7475 150
7476 150
7477 150
7478 150
7479 150
7480 150
7481 150
7482 150
7483 150
7484 150
7485 150
7486 150
7487 150
7488 150
7489 150
7490 150
7491 150
7492 150
7493 150
7494 150
7495 150
7496 150
7497 150
7498 150
7499 150
7500 150
7501 151
7502 151
7503 151
7504 151
7505 151
7506 151
7507 151
7508 151
7509 151
7510 151
7511 151
7512 151
7513 151
7514 151
7515 151
7516 151
7517 151
7518 151
7519 151
7520 151
7521 151
7522 151
7523 151
7524 151
7525 151
7526 151
7527 151
7528 151
7529 151
7530 151
7531 151
7532 151
7533 151
7534 151
7535 151
7536 151
7537 151
7538 151
7539 151
7540 151
7541 151
7542 151
7543 151
7544 151
7545 151
7546 151
7547 151
7548 151
7549 151
7550 151
7551 152
7552 152
7553 152
7554 152
7555 152
7556 152
7557 152
7558 152
7559 152
7560 152
7561 152
7562 152
7563 152
7564 152
7565 152
7566 152
7567 152
7568 152
7569 152
7570 152
7571 152
7572 152
7573 152
7574 152
7575 152
7576 152
7577 152
7578 152
7579 152
7580 152
7581 152
7582 152
7583 152
7584 152
7585 152
7586 152
7587 152
7588 152
7589 152
7590 152
7591 152
7592 152
7593 152
7594 152
7595 152
7596 152
7597 152
7598 152
7599 152
7600 152
7601 153
7602 153
7603 153
7604 153
7605 153
7606 153
7607 153
7608 153
7609 153
7610 153
7611 153
7612 153
7613 153
7614 153
7615 153
7616 153
7617 153
7618 153
7619 153
7620 153
7621 153
7622 153
7623 153
7624 153
7625 153
7626 153
7627 153
7628 153
7629 153
7630 153
7631 153
7632 153
7633 153
7634 153
7635 153
7636 153
7637 153
7638 153
7639 153
7640 153
7641 153
7642 153
7643 153
7644 153
7645 153
7646 153
7647 153
7648 153
7649 153
7650 153
7651 154
7652 154
7653 154
7654 154
7655 154
7656 154
7657 154
7658 154
7659 154
7660 154
7661 154
7662 154
7663 154
7664 154
7665 154
7666 154
7667 154
7668 154
7669 154
7670 154
7671 154
7672 154
7673 154
7674 154
7675 154
7676 154
7677 154
7678 154
7679 154
7680 154
7681 154
7682 154
7683 154
7684 154
7685 154
7686 154
7687 154
7688 154
7689 154
7690 154
7691 154
7692 154
7693 154
7694 154
7695 154
7696 154
7697 154
7698 154
7699 154
7700 154
7701 155
7702 155
7703 155
7704 155
7705 155
7706 155
7707 155
7708 155
7709 155
7710 155
7711 155
7712 155
7713 155
7714 155
7715 155
7716 155
7717 155
7718 155
7719 155
7720 155
7721 155
7722 155
7723 155
7724 155
7725 155
7726 155
7727 155
7728 155
7729 155
7730 155
7731 155
7732 155
7733 155
7734 155
7735 155
7736 155
7737 155
7738 155
7739 155
7740 155
7741 155
7742 155
7743 155
7744 155
7745 155
7746 155
7747 155
7748 155
7749 155
7750 155
7751 156
7752 156
7753 156
7754 156
7755 156
7756 156
7757 156
7758 156
7759 156
7760 156
7761 156
7762 156
7763 156
7764 156
7765 156
7766 156
7767 156
7768 156
7769 156
7770 156
7771 156
7772 156
7773 156
7774 156
7775 156
7776 156
7777 156
7778 156
7779 156
7780 156
7781 156
7782 156
7783 156
7784 156
7785 156
7786 156
7787 156
7788 156
7789 156
7790 156
7791 156
7792 156
7793 156
7794 156
7795 156
7796 156
7797 156
7798 156
7799 156
7800 156
7801 157
7802 157
7803 157
7804 157
7805 157
7806 157
7807 157
7808 157
7809 157
7810 157
7811 157
7812 157
7813 157
7814 157
7815 157
7816 157
7817 157
7818 157
7819 157
7820 157
7821 157
7822 157
7823 157
7824 157
7825 157
7826 157
7827 157
7828 157
7829 157
7830 157
7831 157
7832 157
7833 157
7834 157
7835 157
7836 157
7837 157
7838 157
7839 157
7840 157
7841 157
7842 157
7843 157
7844 157
7845 157
7846 157
7847 157
7848 157
7849 157
7850 157
7851 158
7852 158
7853 158
7854 158
7855 158
7856 158
7857 158
7858 158
7859 158
7860 158
7861 158
7862 158
7863 158
7864 158
7865 158
7866 158
7867 158
7868 158
7869 158
7870 158
7871 158
7872 158
7873 158
7874 158
7875 158
7876 158
7877 158
7878 158
7879 158
7880 158
7881 158
7882 158
7883 158
7884 158
7885 158
7886 158
7887 158
7888 158
7889 158
7890 158
7891 158
7892 158
7893 158
7894 158
7895 158
7896 158
7897 158
7898 158
7899 158
7900 158
7901 159
7902 159
7903 159
7904 159
7905 159
7906 159
7907 159
7908 159
7909 159
7910 159
7911 159
7912 159
7913 159
7914 159
7915 159
7916 159
7917 159
7918 159
7919 159
7920 159
7921 159
7922 159
7923 159
7924 159
7925 159
7926 159
7927 159
7928 159
7929 159
7930 159
7931 159
7932 159
7933 159
7934 159
7935 159
7936 159
7937 159
7938 159
7939 159
7940 159
7941 159
7942 159
7943 159
7944 159
7945 159
7946 159
7947 159
7948 159
7949 159
7950 159
7951 160
7952 160
7953 160
7954 160
7955 160
7956 160
7957 160
7958 160
7959 160
7960 160
7961 160
7962 160
7963 160
7964 160
7965 160
7966 160
7967 160
7968 160
7969 160
7970 160
7971 160
7972 160
7973 160
7974 160
7975 160
7976 160
7977 160
7978 160
7979 160
7980 160
7981 160
7982 160
7983 160
7984 160
7985 160
7986 160
7987 160
7988 160
7989 160
7990 160
7991 160
7992 160
7993 160
7994 160
7995 160
7996 160
7997 160
7998 160
7999 160
8000 160
8001 161
8002 161
8003 161
8004 161
8005 161
8006 161
8007 161
8008 161
8009 161
8010 161
8011 161
8012 161
8013 161
8014 161
8015 161
8016 161
8017 161
8018 161
8019 161
8020 161
8021 161
8022 161
8023 161
8024 161
8025 161
8026 161
8027 161
8028 161
8029 161
8030 161
8031 161
8032 161
8033 161
8034 161
8035 161
8036 161
8037 161
8038 161
8039 161
8040 161
8041 161
8042 161
8043 161
8044 161
8045 161
8046 161
8047 161
8048 161
8049 161
8050 161
8051 162
8052 162
8053 162
8054 162
8055 162
8056 162
8057 162
8058 162
8059 162
8060 162
8061 162
8062 162
8063 162
8064 162
8065 162
8066 162
8067 162
8068 162
8069 162
8070 162
8071 162
8072 162
8073 162
8074 162
8075 162
8076 162
8077 162
8078 162
8079 162
8080 162
8081 162
8082 162
8083 162
8084 162
8085 162
8086 162
8087 162
8088 162
8089 162
8090 162
8091 162
8092 162
8093 162
8094 162
8095 162
8096 162
8097 162
8098 162
8099 162
8100 162
8101 163
8102 163
8103 163
8104 163
8105 163
8106 163
8107 163
8108 163
8109 163
8110 163
8111 163
8112 163
8113 163
8114 163
8115 163
8116 163
8117 163
8118 163
8119 163
8120 163
8121 163
8122 163
8123 163
8124 163
8125 163
8126 163
8127 163
8128 163
8129 163
8130 163
8131 163
8132 163
8133 163
8134 163
8135 163
8136 163
8137 163
8138 163
8139 163
8140 163
8141 163
8142 163
8143 163
8144 163
8145 163
8146 163
8147 163
8148 163
8149 163
8150 163
8151 164
8152 164
8153 164
8154 164
8155 164
8156 164
8157 164
8158 164
8159 164
8160 164
8161 164
8162 164
8163 164
8164 164
8165 164
8166 164
8167 164
8168 164
8169 164
8170 164
8171 164
8172 164
8173 164
8174 164
8175 164
8176 164
8177 164
8178 164
8179 164
8180 164
8181 164
8182 164
8183 164
8184 164
8185 164
8186 164
8187 164
8188 164
8189 164
8190 164
8191 164
8192 164
8193 164
8194 164
8195 164
8196 164
8197 164
8198 164
8199 164
8200 164
8201 165
8202 165
8203 165
8204 165
8205 165
8206 165
8207 165
8208 165
8209 165
8210 165
8211 165
8212 165
8213 165
8214 165
8215 165
8216 165
8217 165
8218 165
8219 165
8220 165
8221 165
8222 165
8223 165
8224 165
8225 165
8226 165
8227 165
8228 165
8229 165
8230 165
8231 165
8232 165
8233 165
8234 165
8235 165
8236 165
8237 165
8238 165
8239 165
8240 165
8241 165
8242 165
8243 165
8244 165
8245 165
8246 165
8247 165
8248 165
8249 165
8250 165
8251 166
8252 166
8253 166
8254 166
8255 166
8256 166
8257 166
8258 166
8259 166
8260 166
8261 166
8262 166
8263 166
8264 166
8265 166
8266 166
8267 166
8268 166
8269 166
8270 166
8271 166
8272 166
8273 166
8274 166
8275 166
8276 166
8277 166
8278 166
8279 166
8280 166
8281 166
8282 166
8283 166
8284 166
8285 166
8286 166
8287 166
8288 166
8289 166
8290 166
8291 166
8292 166
8293 166
8294 166
8295 166
8296 166
8297 166
8298 166
8299 166
8300 166
8301 167
8302 167
8303 167
8304 167
8305 167
8306 167
8307 167
8308 167
8309 167
8310 167
8311 167
8312 167
8313 167
8314 167
8315 167
8316 167
8317 167
8318 167
8319 167
8320 167
8321 167
8322 167
8323 167
8324 167
8325 167
8326 167
8327 167
8328 167
8329 167
8330 167
8331 167
8332 167
8333 167
8334 167
8335 167
8336 167
8337 167
8338 167
8339 167
8340 167
8341 167
8342 167
8343 167
8344 167
8345 167
8346 167
8347 167
8348 167
8349 167
8350 167
8351 168
8352 168
8353 168
8354 168
8355 168
8356 168
8357 168
8358 168
8359 168
8360 168
8361 168
8362 168
8363 168
8364 168
8365 168
8366 168
8367 168
8368 168
8369 168
8370 168
8371 168
8372 168
8373 168
8374 168
8375 168
8376 168
8377 168
8378 168
8379 168
8380 168
8381 168
8382 168
8383 168
8384 168
8385 168
8386 168
8387 168
8388 168
8389 168
8390 168
8391 168
8392 168
8393 168
8394 168
8395 168
8396 168
8397 168
8398 168
8399 168
8400 168
8401 169
8402 169
8403 169
8404 169
8405 169
8406 169
8407 169
8408 169
8409 169
8410 169
8411 169
8412 169
8413 169
8414 169
8415 169
8416 169
8417 169
8418 169
8419 169
8420 169
8421 169
8422 169
8423 169
8424 169
8425 169
8426 169
8427 169
8428 169
8429 169
8430 169
8431 169
8432 169
8433 169
8434 169
8435 169
8436 169
8437 169
8438 169
8439 169
8440 169
8441 169
8442 169
8443 169
8444 169
8445 169
8446 169
8447 169
8448 169
8449 169
8450 169
8451 170
8452 170
8453 170
8454 170
8455 170
8456 170
8457 170
8458 170
8459 170
8460 170
8461 170
8462 170
8463 170
8464 170
8465 170
8466 170
8467 170
8468 170
8469 170
8470 170
8471 170
8472 170
8473 170
8474 170
8475 170
8476 170
8477 170
8478 170
8479 170
8480 170
8481 170
8482 170
8483 170
8484 170
8485 170
8486 170
8487 170
8488 170
8489 170
8490 170
8491 170
8492 170
8493 170
8494 170
8495 170
8496 170
8497 170
8498 170
8499 170
8500 170
8501 171
8502 171
8503 171
8504 171
8505 171
8506 171
8507 171
8508 171
8509 171
8510 171
8511 171
8512 171
8513 171
8514 171
8515 171
8516 171
8517 171
8518 171
8519 171
8520 171
8521 171
8522 171
8523 171
8524 171
8525 171
8526 171
8527 171
8528 171
8529 171
8530 171
8531 171
8532 171
8533 171
8534 171
8535 171
8536 171
8537 171
8538 171
8539 171
8540 171
8541 171
8542 171
8543 171
8544 171
8545 171
8546 171
8547 171
8548 171
8549 171
8550 171
8551 172
8552 172
8553 172
8554 172
8555 172
8556 172
8557 172
8558 172
8559 172
8560 172
8561 172
8562 172
8563 172
8564 172
8565 172
8566 172
8567 172
8568 172
8569 172
8570 172
8571 172
8572 172
8573 172
8574 172
8575 172
8576 172
8577 172
8578 172
8579 172
8580 172
8581 172
8582 172
8583 172
8584 172
8585 172
8586 172
8587 172
8588 172
8589 172
8590 172
8591 172
8592 172
8593 172
8594 172
8595 172
8596 172
8597 172
8598 172
8599 172
8600 172
8601 173
8602 173
8603 173
8604 173
8605 173
8606 173
8607 173
8608 173
8609 173
8610 173
8611 173
8612 173
8613 173
8614 173
8615 173
8616 173
8617 173
8618 173
8619 173
8620 173
8621 173
8622 173
8623 173
8624 173
8625 173
8626 173
8627 173
8628 173
8629 173
8630 173
8631 173
8632 173
8633 173
8634 173
8635 173
8636 173
8637 173
8638 173
8639 173
8640 173
8641 173
8642 173
8643 173
8644 173
8645 173
8646 173
8647 173
8648 173
8649 173
8650 173
8651 174
8652 174
8653 174
8654 174
8655 174
8656 174
8657 174
8658 174
8659 174
8660 174
8661 174
8662 174
8663 174
8664 174
8665 174
8666 174
8667 174
8668 174
8669 174
8670 174
8671 174
8672 174
8673 174
8674 174
8675 174
8676 174
8677 174
8678 174
8679 174
8680 174
8681 174
8682 174
8683 174
8684 174
8685 174
8686 174
8687 174
8688 174
8689 174
8690 174
8691 174
8692 174
8693 174
8694 174
8695 174
8696 174
8697 174
8698 174
8699 174
8700 174
8701 175
8702 175
8703 175
8704 175
8705 175
8706 175
8707 175
8708 175
8709 175
8710 175
8711 175
8712 175
8713 175
8714 175
8715 175
8716 175
8717 175
8718 175
8719 175
8720 175
8721 175
8722 175
8723 175
8724 175
8725 175
8726 175
8727 175
8728 175
8729 175
8730 175
8731 175
8732 175
8733 175
8734 175
8735 175
8736 175
8737 175
8738 175
8739 175
8740 175
8741 175
8742 175
8743 175
8744 175
8745 175
8746 175
8747 175
8748 175
8749 175
8750 175
8751 176
8752 176
8753 176
8754 176
8755 176
8756 176
8757 176
8758 176
8759 176
8760 176
8761 176
8762 176
8763 176
8764 176
8765 176
8766 176
8767 176
8768 176
8769 176
8770 176
8771 176
8772 176
8773 176
8774 176
8775 176
8776 176
8777 176
8778 176
8779 176
8780 176
8781 176
8782 176
8783 176
8784 176
8785 176
8786 176
8787 176
8788 176
8789 176
8790 176
8791 176
8792 176
8793 176
8794 176
8795 176
8796 176
8797 176
8798 176
8799 176
8800 176
8801 177
8802 177
8803 177
8804 177
8805 177
8806 177
8807 177
8808 177
8809 177
8810 177
8811 177
8812 177
8813 177
8814 177
8815 177
8816 177
8817 177
8818 177
8819 177
8820 177
8821 177
8822 177
8823 177
8824 177
8825 177
8826 177
8827 177
8828 177
8829 177
8830 177
8831 177
8832 177
8833 177
8834 177
8835 177
8836 177
8837 177
8838 177
8839 177
8840 177
8841 177
8842 177
8843 177
8844 177
8845 177
8846 177
8847 177
8848 177
8849 177
8850 177
8851 178
8852 178
8853 178
8854 178
8855 178
8856 178
8857 178
8858 178
8859 178
8860 178
8861 178
8862 178
8863 178
8864 178
8865 178
8866 178
8867 178
8868 178
8869 178
8870 178
8871 178
8872 178
8873 178
8874 178
8875 178
8876 178
8877 178
8878 178
8879 178
8880 178
8881 178
8882 178
8883 178
8884 178
8885 178
8886 178
8887 178
8888 178
8889 178
8890 178
8891 178
8892 178
8893 178
8894 178
8895 178
8896 178
8897 178
8898 178
8899 178
8900 178
8901 179
8902 179
8903 179
8904 179
8905 179
8906 179
8907 179
8908 179
8909 179
8910 179
8911 179
8912 179
8913 179
8914 179
8915 179
8916 179
8917 179
8918 179
8919 179
8920 179
8921 179
8922 179
8923 179
8924 179
8925 179
8926 179
8927 179
8928 179
8929 179
8930 179
8931 179
8932 179
8933 179
8934 179
8935 179
8936 179
8937 179
8938 179
8939 179
8940 179
8941 179
8942 179
8943 179
8944 179
8945 179
8946 179
8947 179
8948 179
8949 179
8950 179
8951 180
8952 180
8953 180
8954 180
8955 180
8956 180
8957 180
8958 180
8959 180
8960 180
8961 180
8962 180
8963 180
8964 180
8965 180
8966 180
8967 180
8968 180
8969 180
8970 180
8971 180
8972 180
8973 180
8974 180
8975 180
8976 180
8977 180
8978 180
8979 180
8980 180
8981 180
8982 180
8983 180
8984 180
8985 180
8986 180
8987 180
8988 180
8989 180
8990 180
8991 180
8992 180
8993 180
8994 180
8995 180
8996 180
8997 180
8998 180
8999 180
9000 180
9001 181
9002 181
9003 181
9004 181
9005 181
9006 181
9007 181
9008 181
9009 181
9010 181
9011 181
9012 181
9013 181
9014 181
9015 181
9016 181
9017 181
9018 181
9019 181
9020 181
9021 181
9022 181
9023 181
9024 181
9025 181
9026 181
9027 181
9028 181
9029 181
9030 181
9031 181
9032 181
9033 181
9034 181
9035 181
9036 181
9037 181
9038 181
9039 181
9040 181
9041 181
9042 181
9043 181
9044 181
9045 181
9046 181
9047 181
9048 181
9049 181
9050 181
9051 182
9052 182
9053 182
9054 182
9055 182
9056 182
9057 182
9058 182
9059 182
9060 182
9061 182
9062 182
9063 182
9064 182
9065 182
9066 182
9067 182
9068 182
9069 182
9070 182
9071 182
9072 182
9073 182
9074 182
9075 182
9076 182
9077 182
9078 182
9079 182
9080 182
9081 182
9082 182
9083 182
9084 182
9085 182
9086 182
9087 182
9088 182
9089 182
9090 182
9091 182
9092 182
9093 182
9094 182
9095 182
9096 182
9097 182
9098 182
9099 182
9100 182
9101 183
9102 183
9103 183
9104 183
9105 183
9106 183
9107 183
9108 183
9109 183
9110 183
9111 183
9112 183
9113 183
9114 183
9115 183
9116 183
9117 183
9118 183
9119 183
9120 183
9121 183
9122 183
9123 183
9124 183
9125 183
9126 183
9127 183
9128 183
9129 183
9130 183
9131 183
9132 183
9133 183
9134 183
9135 183
9136 183
9137 183
9138 183
9139 183
9140 183
9141 183
9142 183
9143 183
9144 183
9145 183
9146 183
9147 183
9148 183
9149 183
9150 183
9151 184
9152 184
9153 184
9154 184
9155 184
9156 184
9157 184
9158 184
9159 184
9160 184
9161 184
9162 184
9163 184
9164 184
9165 184
9166 184
9167 184
9168 184
9169 184
9170 184
9171 184
9172 184
9173 184
9174 184
9175 184
9176 184
9177 184
9178 184
9179 184
9180 184
9181 184
9182 184
9183 184
9184 184
9185 184
9186 184
9187 184
9188 184
9189 184
9190 184
9191 184
9192 184
9193 184
9194 184
9195 184
9196 184
9197 184
9198 184
9199 184
9200 184
9201 185
9202 185
9203 185
9204 185
9205 185
9206 185
9207 185
9208 185
9209 185
9210 185
9211 185
9212 185
9213 185
9214 185
9215 185
9216 185
9217 185
9218 185
9219 185
9220 185
9221 185
9222 185
9223 185
9224 185
9225 185
9226 185
9227 185
9228 185
9229 185
9230 185
9231 185
9232 185
9233 185
9234 185
9235 185
9236 185
9237 185
9238 185
9239 185
9240 185
9241 185
9242 185
9243 185
9244 185
9245 185
9246 185
9247 185
9248 185
9249 185
9250 185
9251 186
9252 186
9253 186
9254 186
9255 186
9256 186
9257 186
9258 186
9259 186
9260 186
9261 186
9262 186
9263 186
9264 186
9265 186
9266 186
9267 186
9268 186
9269 186
9270 186
9271 186
9272 186
9273 186
9274 186
9275 186
9276 186
9277 186
9278 186
9279 186
9280 186
9281 186
9282 186
9283 186
9284 186
9285 186
9286 186
9287 186
9288 186
9289 186
9290 186
9291 186
9292 186
9293 186
9294 186
9295 186
9296 186
9297 186
9298 186
9299 186
9300 186
9301 187
9302 187
9303 187
9304 187
9305 187
9306 187
9307 187
9308 187
9309 187
9310 187
9311 187
9312 187
9313 187
9314 187
9315 187
9316 187
9317 187
9318 187
9319 187
9320 187
9321 187
9322 187
9323 187
9324 187
9325 187
9326 187
9327 187
9328 187
9329 187
9330 187
9331 187
9332 187
9333 187
9334 187
9335 187
9336 187
9337 187
9338 187
9339 187
9340 187
9341 187
9342 187
9343 187
9344 187
9345 187
9346 187
9347 187
9348 187
9349 187
9350 187
9351 188
9352 188
9353 188
9354 188
9355 188
9356 188
9357 188
9358 188
9359 188
9360 188
9361 188
9362 188
9363 188
9364 188
9365 188
9366 188
9367 188
9368 188
9369 188
9370 188
9371 188
9372 188
9373 188
9374 188
9375 188
9376 188
9377 188
9378 188
9379 188
9380 188
9381 188
9382 188
9383 188
9384 188
9385 188
9386 188
9387 188
9388 188
9389 188
9390 188
9391 188
9392 188
9393 188
9394 188
9395 188
9396 188
9397 188
9398 188
9399 188
9400 188
9401 189
9402 189
9403 189
9404 189
9405 189
9406 189
9407 189
9408 189
9409 189
9410 189
9411 189
9412 189
9413 189
9414 189
9415 189
9416 189
9417 189
9418 189
9419 189
9420 189
9421 189
9422 189
9423 189
9424 189
9425 189
9426 189
9427 189
9428 189
9429 189
9430 189
9431 189
9432 189
9433 189
9434 189
9435 189
9436 189
9437 189
9438 189
9439 189
9440 189
9441 189
9442 189
9443 189
9444 189
9445 189
9446 189
9447 189
9448 189
9449 189
9450 189
9451 190
9452 190
9453 190
9454 190
9455 190
9456 190
9457 190
9458 190
9459 190
9460 190
9461 190
9462 190
9463 190
9464 190
9465 190
9466 190
9467 190
9468 190
9469 190
9470 190
9471 190
9472 190
9473 190
9474 190
9475 190
9476 190
9477 190
9478 190
9479 190
9480 190
9481 190
9482 190
9483 190
9484 190
9485 190
9486 190
9487 190
9488 190
9489 190
9490 190
9491 190
9492 190
9493 190
9494 190
9495 190
9496 190
9497 190
9498 190
9499 190
9500 190
9501 191
9502 191
9503 191
9504 191
9505 191
9506 191
9507 191
9508 191
9509 191
9510 191
9511 191
9512 191
9513 191
9514 191
9515 191
9516 191
9517 191
9518 191
9519 191
9520 191
9521 191
9522 191
9523 191
9524 191
9525 191
9526 191
9527 191
9528 191
9529 191
9530 191
9531 191
9532 191
9533 191
9534 191
9535 191
9536 191
9537 191
9538 191
9539 191
9540 191
9541 191
9542 191
9543 191
9544 191
9545 191
9546 191
9547 191
9548 191
9549 191
9550 191
9551 192
9552 192
9553 192
9554 192
9555 192
9556 192
9557 192
9558 192
9559 192
9560 192
9561 192
9562 192
9563 192
9564 192
9565 192
9566 192
9567 192
9568 192
9569 192
9570 192
9571 192
9572 192
9573 192
9574 192
9575 192
9576 192
9577 192
9578 192
9579 192
9580 192
9581 192
9582 192
9583 192
9584 192
9585 192
9586 192
9587 192
9588 192
9589 192
9590 192
9591 192
9592 192
9593 192
9594 192
9595 192
9596 192
9597 192
9598 192
9599 192
9600 192
9601 193
9602 193
9603 193
9604 193
9605 193
9606 193
9607 193
9608 193
9609 193
9610 193
9611 193
9612 193
9613 193
9614 193
9615 193
9616 193
9617 193
9618 193
9619 193
9620 193
9621 193
9622 193
9623 193
9624 193
9625 193
9626 193
9627 193
9628 193
9629 193
9630 193
9631 193
9632 193
9633 193
9634 193
9635 193
9636 193
9637 193
9638 193
9639 193
9640 193
9641 193
9642 193
9643 193
9644 193
9645 193
9646 193
9647 193
9648 193
9649 193
9650 193
9651 194
9652 194
9653 194
9654 194
9655 194
9656 194
9657 194
9658 194
9659 194
9660 194
9661 194
9662 194
9663 194
9664 194
9665 194
9666 194
9667 194
9668 194
9669 194
9670 194
9671 194
9672 194
9673 194
9674 194
9675 194
9676 194
9677 194
9678 194
9679 194
9680 194
9681 194
9682 194
9683 194
9684 194
9685 194
9686 194
9687 194
9688 194
9689 194
9690 194
9691 194
9692 194
9693 194
9694 194
9695 194
9696 194
9697 194
9698 194
9699 194
9700 194
9701 195
9702 195
9703 195
9704 195
9705 195
9706 195
9707 195
9708 195
9709 195
9710 195
9711 195
9712 195
9713 195
9714 195
9715 195
9716 195
9717 195
9718 195
9719 195
9720 195
9721 195
9722 195
9723 195
9724 195
9725 195
9726 195
9727 195
9728 195
9729 195
9730 195
9731 195
9732 195
9733 195
9734 195
9735 195
9736 195
9737 195
9738 195
9739 195
9740 195
9741 195
9742 195
9743 195
9744 195
9745 195
9746 195
9747 195
9748 195
9749 195
9750 195
9751 196
9752 196
9753 196
9754 196
9755 196
9756 196
9757 196
9758 196
9759 196
9760 196
9761 196
9762 196
9763 196
9764 196
9765 196
9766 196
9767 196
9768 196
9769 196
9770 196
9771 196
9772 196
9773 196
9774 196
9775 196
9776 196
9777 196
9778 196
9779 196
9780 196
9781 196
9782 196
9783 196
9784 196
9785 196
9786 196
9787 196
9788 196
9789 196
9790 196
9791 196
9792 196
9793 196
9794 196
9795 196
9796 196
9797 196
9798 196
9799 196
9800 196
9801 197
9802 197
9803 197
9804 197
9805 197
9806 197
9807 197
9808 197
9809 197
9810 197
9811 197
9812 197
9813 197
9814 197
9815 197
9816 197
9817 197
9818 197
9819 197
9820 197
9821 197
9822 197
9823 197
9824 197
9825 197
9826 197
9827 197
9828 197
9829 197
9830 197
9831 197
9832 197
9833 197
9834 197
9835 197
9836 197
9837 197
9838 197
9839 197
9840 197
9841 197
9842 197
9843 197
9844 197
9845 197
9846 197
9847 197
9848 197
9849 197
9850 197
9851 198
9852 198
9853 198
9854 198
9855 198
9856 198
9857 198
9858 198
9859 198
9860 198
9861 198
9862 198
9863 198
9864 198
9865 198
9866 198
9867 198
9868 198
9869 198
9870 198
9871 198
9872 198
9873 198
9874 198
9875 198
9876 198
9877 198
9878 198
9879 198
9880 198
9881 198
9882 198
9883 198
9884 198
9885 198
9886 198
9887 198
9888 198
9889 198
9890 198
9891 198
9892 198
9893 198
9894 198
9895 198
9896 198
9897 198
9898 198
9899 198
9900 198
9901 199
9902 199
9903 199
9904 199
9905 199
9906 199
9907 199
9908 199
9909 199
9910 199
9911 199
9912 199
9913 199
9914 199
9915 199
9916 199
9917 199
9918 199
9919 199
9920 199
9921 199
9922 199
9923 199
9924 199
9925 199
9926 199
9927 199
9928 199
9929 199
9930 199
9931 199
9932 199
9933 199
9934 199
9935 199
9936 199
9937 199
9938 199
9939 199
9940 199
9941 199
9942 199
9943 199
9944 199
9945 199
9946 199
9947 199
9948 199
9949 199
9950 199
9951 200
9952 200
9953 200
9954 200
9955 200
9956 200
9957 200
9958 200
9959 200
9960 200
9961 200
9962 200
9963 200
9964 200
9965 200
9966 200
9967 200
9968 200
9969 200
9970 200
9971 200
9972 200
9973 200
9974 200
9975 200
9976 200
9977 200
9978 200
9979 200
9980 200
9981 200
9982 200
9983 200
9984 200
9985 200
9986 200
9987 200
9988 200
9989 200
9990 200
9991 200
9992 200
9993 200
9994 200
9995 200
9996 200
9997 200
9998 200
9999 200
10000 200
10001 201
10002 201
10003 201
10004 201
10005 201
10006 201
10007 201
10008 201
10009 201
10010 201
10011 201
10012 201
10013 201
10014 201
10015 201
10016 201
10017 201
10018 201
10019 201
10020 201
10021 201
10022 201
10023 201
10024 201
10025 201
10026 201
10027 201
10028 201
10029 201
10030 201
10031 201
10032 201
10033 201
10034 201
10035 201
10036 201
10037 201
10038 201
10039 201
10040 201
10041 201
10042 201
10043 201
10044 201
10045 201
10046 201
10047 201
10048 201
10049 201
10050 201
10051 202
10052 202
10053 202
10054 202
10055 202
10056 202
10057 202
10058 202
10059 202
10060 202
10061 202
10062 202
10063 202
10064 202
10065 202
10066 202
10067 202
10068 202
10069 202
10070 202
10071 202
10072 202
10073 202
10074 202
10075 202
10076 202
10077 202
10078 202
10079 202
10080 202
10081 202
10082 202
10083 202
10084 202
10085 202
10086 202
10087 202
10088 202
10089 202
10090 202
10091 202
10092 202
10093 202
10094 202
10095 202
10096 202
10097 202
10098 202
10099 202
10100 202
10101 203
10102 203
10103 203
10104 203
10105 203
10106 203
10107 203
10108 203
10109 203
10110 203
10111 203
10112 203
10113 203
10114 203
10115 203
10116 203
10117 203
10118 203
10119 203
10120 203
10121 203
10122 203
10123 203
10124 203
10125 203
10126 203
10127 203
10128 203
10129 203
10130 203
10131 203
10132 203
10133 203
10134 203
10135 203
10136 203
10137 203
10138 203
10139 203
10140 203
10141 203
10142 203
10143 203
10144 203
10145 203
10146 203
10147 203
10148 203
10149 203
10150 203
10151 204
10152 204
10153 204
10154 204
10155 204
10156 204
10157 204
10158 204
10159 204
10160 204
10161 204
10162 204
10163 204
10164 204
10165 204
10166 204
10167 204
10168 204
10169 204
10170 204
10171 204
10172 204
10173 204
10174 204
10175 204
10176 204
10177 204
10178 204
10179 204
10180 204
10181 204
10182 204
10183 204
10184 204
10185 204
10186 204
10187 204
10188 204
10189 204
10190 204
10191 204
10192 204
10193 204
10194 204
10195 204
10196 204
10197 204
10198 204
10199 204
10200 204
10201 205
10202 205
10203 205
10204 205
10205 205
10206 205
10207 205
10208 205
10209 205
10210 205
10211 205
10212 205
10213 205
10214 205
10215 205
10216 205
10217 205
10218 205
10219 205
10220 205
10221 205
10222 205
10223 205
10224 205
10225 205
10226 205
10227 205
10228 205
10229 205
10230 205
10231 205
10232 205
10233 205
10234 205
10235 205
10236 205
10237 205
10238 205
10239 205
10240 205
10241 205
10242 205
10243 205
10244 205
10245 205
10246 205
10247 205
10248 205
10249 205
10250 205
10251 206
10252 206
10253 206
10254 206
10255 206
10256 206
10257 206
10258 206
10259 206
10260 206
10261 206
10262 206
10263 206
10264 206
10265 206
10266 206
10267 206
10268 206
10269 206
10270 206
10271 206
10272 206
10273 206
10274 206
10275 206
10276 206
10277 206
10278 206
10279 206
10280 206
10281 206
10282 206
10283 206
10284 206
10285 206
10286 206
10287 206
10288 206
10289 206
10290 206
10291 206
10292 206
10293 206
10294 206
10295 206
10296 206
10297 206
10298 206
10299 206
10300 206
10301 207
10302 207
10303 207
10304 207
10305 207
10306 207
10307 207
10308 207
10309 207
10310 207
10311 207
10312 207
10313 207
10314 207
10315 207
10316 207
10317 207
10318 207
10319 207
10320 207
10321 207
10322 207
10323 207
10324 207
10325 207
10326 207
10327 207
10328 207
10329 207
10330 207
10331 207
10332 207
10333 207
10334 207
10335 207
10336 207
10337 207
10338 207
10339 207
10340 207
10341 207
10342 207
10343 207
10344 207
10345 207
10346 207
10347 207
10348 207
10349 207
10350 207
10351 208
10352 208
10353 208
10354 208
10355 208
10356 208
10357 208
10358 208
10359 208
10360 208
10361 208
10362 208
10363 208
10364 208
10365 208
10366 208
10367 208
10368 208
10369 208
10370 208
10371 208
10372 208
10373 208
10374 208
10375 208
10376 208
10377 208
10378 208
10379 208
10380 208
10381 208
10382 208
10383 208
10384 208
10385 208
10386 208
10387 208
10388 208
10389 208
10390 208
10391 208
10392 208
10393 208
10394 208
10395 208
10396 208
10397 208
10398 208
10399 208
10400 208
10401 209
10402 209
10403 209
10404 209
10405 209
10406 209
10407 209
10408 209
10409 209
10410 209
10411 209
10412 209
10413 209
10414 209
10415 209
10416 209
10417 209
10418 209
10419 209
10420 209
10421 209
10422 209
10423 209
10424 209
10425 209
10426 209
10427 209
10428 209
10429 209
10430 209
10431 209
10432 209
10433 209
10434 209
10435 209
10436 209
10437 209
10438 209
10439 209
10440 209
10441 209
10442 209
10443 209
10444 209
10445 209
10446 209
10447 209
10448 209
10449 209
10450 209
10451 210
10452 210
10453 210
10454 210
10455 210
10456 210
10457 210
10458 210
10459 210
10460 210
10461 210
10462 210
10463 210
10464 210
10465 210
10466 210
10467 210
10468 210
10469 210
10470 210
10471 210
10472 210
10473 210
10474 210
10475 210
10476 210
10477 210
10478 210
10479 210
10480 210
10481 210
10482 210
10483 210
10484 210
10485 210
10486 210
10487 210
10488 210
10489 210
10490 210
10491 210
10492 210
10493 210
10494 210
10495 210
10496 210
10497 210
10498 210
10499 210
10500 210
10501 211
10502 211
10503 211
10504 211
10505 211
10506 211
10507 211
10508 211
10509 211
10510 211
10511 211
10512 211
10513 211
10514 211
10515 211
10516 211
10517 211
10518 211
10519 211
10520 211
10521 211
10522 211
10523 211
10524 211
10525 211
10526 211
10527 211
10528 211
10529 211
10530 211
10531 211
10532 211
10533 211
10534 211
10535 211
10536 211
10537 211
10538 211
10539 211
10540 211
10541 211
10542 211
10543 211
10544 211
10545 211
10546 211
10547 211
10548 211
10549 211
10550 211
10551 212
10552 212
10553 212
10554 212
10555 212
10556 212
10557 212
10558 212
10559 212
10560 212
10561 212
10562 212
10563 212
10564 212
10565 212
10566 212
10567 212
10568 212
10569 212
10570 212
10571 212
10572 212
10573 212
10574 212
10575 212
10576 212
10577 212
10578 212
10579 212
10580 212
10581 212
10582 212
10583 212
10584 212
10585 212
10586 212
10587 212
10588 212
10589 212
10590 212
10591 212
10592 212
10593 212
10594 212
10595 212
10596 212
10597 212
10598 212
10599 212
10600 212
10601 213
10602 213
10603 213
10604 213
10605 213
10606 213
10607 213
10608 213
10609 213
10610 213
10611 213
10612 213
10613 213
10614 213
10615 213
10616 213
10617 213
10618 213
10619 213
10620 213
10621 213
10622 213
10623 213
10624 213
10625 213
10626 213
10627 213
10628 213
10629 213
10630 213
10631 213
10632 213
10633 213
10634 213
10635 213
10636 213
10637 213
10638 213
10639 213
10640 213
10641 213
10642 213
10643 213
10644 213
10645 213
10646 213
10647 213
10648 213
10649 213
10650 213
10651 214
10652 214
10653 214
10654 214
10655 214
10656 214
10657 214
10658 214
10659 214
10660 214
10661 214
10662 214
10663 214
10664 214
10665 214
10666 214
10667 214
10668 214
10669 214
10670 214
10671 214
10672 214
10673 214
10674 214
10675 214
10676 214
10677 214
10678 214
10679 214
10680 214
10681 214
10682 214
10683 214
10684 214
10685 214
10686 214
10687 214
10688 214
10689 214
10690 214
10691 214
10692 214
10693 214
10694 214
10695 214
10696 214
10697 214
10698 214
10699 214
10700 214
10701 215
10702 215
10703 215
10704 215
10705 215
10706 215
10707 215
10708 215
10709 215
10710 215
10711 215
10712 215
10713 215
10714 215
10715 215
10716 215
10717 215
10718 215
10719 215
10720 215
10721 215
10722 215
10723 215
10724 215
10725 215
10726 215
10727 215
10728 215
10729 215
10730 215
10731 215
10732 215
10733 215
10734 215
10735 215
10736 215
10737 215
10738 215
10739 215
10740 215
10741 215
10742 215
10743 215
10744 215
10745 215
10746 215
10747 215
10748 215
10749 215
10750 215
10751 216
10752 216
10753 216
10754 216
10755 216
10756 216
10757 216
10758 216
10759 216
10760 216
10761 216
10762 216
10763 216
10764 216
10765 216
10766 216
10767 216
10768 216
10769 216
10770 216
10771 216
10772 216
10773 216
10774 216
10775 216
10776 216
10777 216
10778 216
10779 216
10780 216
10781 216
10782 216
10783 216
10784 216
10785 216
10786 216
10787 216
10788 216
10789 216
10790 216
10791 216
10792 216
10793 216
10794 216
10795 216
10796 216
10797 216
10798 216
10799 216
10800 216
10801 217
10802 217
10803 217
10804 217
10805 217
10806 217
10807 217
10808 217
10809 217
10810 217
10811 217
10812 217
10813 217
10814 217
10815 217
10816 217
10817 217
10818 217
10819 217
10820 217
10821 217
10822 217
10823 217
10824 217
10825 217
10826 217
10827 217
10828 217
10829 217
10830 217
10831 217
10832 217
10833 217
10834 217
10835 217
10836 217
10837 217
10838 217
10839 217
10840 217
10841 217
10842 217
10843 217
10844 217
10845 217
10846 217
10847 217
10848 217
10849 217
10850 217
10851 218
10852 218
10853 218
10854 218
10855 218
10856 218
10857 218
10858 218
10859 218
10860 218
10861 218
10862 218
10863 218
10864 218
10865 218
10866 218
10867 218
10868 218
10869 218
10870 218
10871 218
10872 218
10873 218
10874 218
10875 218
10876 218
10877 218
10878 218
10879 218
10880 218
10881 218
10882 218
10883 218
10884 218
10885 218
10886 218
10887 218
10888 218
10889 218
10890 218
10891 218
10892 218
10893 218
10894 218
10895 218
10896 218
10897 218
10898 218
10899 218
10900 218
10901 219
10902 219
10903 219
10904 219
10905 219
10906 219
10907 219
10908 219
10909 219
10910 219
10911 219
10912 219
10913 219
10914 219
10915 219
10916 219
10917 219
10918 219
10919 219
10920 219
10921 219
10922 219
10923 219
10924 219
10925 219
10926 219
10927 219
10928 219
10929 219
10930 219
10931 219
10932 219
10933 219
10934 219
10935 219
10936 219
10937 219
10938 219
10939 219
10940 219
10941 219
10942 219
10943 219
10944 219
10945 219
10946 219
10947 219
10948 219
10949 219
10950 219
10951 220
10952 220
10953 220
10954 220
10955 220
10956 220
10957 220
10958 220
10959 220
10960 220
10961 220
10962 220
10963 220
10964 220
10965 220
10966 220
10967 220
10968 220
10969 220
10970 220
10971 220
10972 220
10973 220
10974 220
10975 220
10976 220
10977 220
10978 220
10979 220
10980 220
10981 220
10982 220
10983 220
10984 220
10985 220
10986 220
10987 220
10988 220
10989 220
10990 220
10991 220
10992 220
10993 220
10994 220
10995 220
10996 220
10997 220
10998 220
10999 220
11000 220
11001 221
11002 221
11003 221
11004 221
11005 221
11006 221
11007 221
11008 221
11009 221
11010 221
11011 221
11012 221
11013 221
11014 221
11015 221
11016 221
11017 221
11018 221
11019 221
11020 221
11021 221
11022 221
11023 221
11024 221
11025 221
11026 221
11027 221
11028 221
11029 221
11030 221
11031 221
11032 221
11033 221
11034 221
11035 221
11036 221
11037 221
11038 221
11039 221
11040 221
11041 221
11042 221
11043 221
11044 221
11045 221
11046 221
11047 221
11048 221
11049 221
11050 221
11051 222
11052 222
11053 222
11054 222
11055 222
11056 222
11057 222
11058 222
11059 222
11060 222
11061 222
11062 222
11063 222
11064 222
11065 222
11066 222
11067 222
11068 222
11069 222
11070 222
11071 222
11072 222
11073 222
11074 222
11075 222
11076 222
11077 222
11078 222
11079 222
11080 222
11081 222
11082 222
11083 222
11084 222
11085 222
11086 222
11087 222
11088 222
11089 222
11090 222
11091 222
11092 222
11093 222
11094 222
11095 222
11096 222
11097 222
11098 222
11099 222
11100 222
11101 223
11102 223
11103 223
11104 223
11105 223
11106 223
11107 223
11108 223
11109 223
11110 223
11111 223
11112 223
11113 223
11114 223
11115 223
11116 223
11117 223
11118 223
11119 223
11120 223
11121 223
11122 223
11123 223
11124 223
11125 223
11126 223
11127 223
11128 223
11129 223
11130 223
11131 223
11132 223
11133 223
11134 223
11135 223
11136 223
11137 223
11138 223
11139 223
11140 223
11141 223
11142 223
11143 223
11144 223
11145 223
11146 223
11147 223
11148 223
11149 223
11150 223
11151 224
11152 224
11153 224
11154 224
11155 224
11156 224
11157 224
11158 224
11159 224
11160 224
11161 224
11162 224
11163 224
11164 224
11165 224
11166 224
11167 224
11168 224
11169 224
11170 224
11171 224
11172 224
11173 224
11174 224
11175 224
11176 224
11177 224
11178 224
11179 224
11180 224
11181 224
11182 224
11183 224
11184 224
11185 224
11186 224
11187 224
11188 224
11189 224
11190 224
11191 224
11192 224
11193 224
11194 224
11195 224
11196 224
11197 224
11198 224
11199 224
11200 224
11201 225
11202 225
11203 225
11204 225
11205 225
11206 225
11207 225
11208 225
11209 225
11210 225
11211 225
11212 225
11213 225
11214 225
11215 225
11216 225
11217 225
11218 225
11219 225
11220 225
11221 225
11222 225
11223 225
11224 225
11225 225
11226 225
11227 225
11228 225
11229 225
11230 225
11231 225
11232 225
11233 225
11234 225
11235 225
11236 225
11237 225
11238 225
11239 225
11240 225
11241 225
11242 225
11243 225
11244 225
11245 225
11246 225
11247 225
11248 225
11249 225
11250 225
11251 226
11252 226
11253 226
11254 226
11255 226
11256 226
11257 226
11258 226
11259 226
11260 226
11261 226
11262 226
11263 226
11264 226
11265 226
11266 226
11267 226
11268 226
11269 226
11270 226
11271 226
11272 226
11273 226
11274 226
11275 226
11276 226
11277 226
11278 226
11279 226
11280 226
11281 226
11282 226
11283 226
11284 226
11285 226
11286 226
11287 226
11288 226
11289 226
11290 226
11291 226
11292 226
11293 226
11294 226
11295 226
11296 226
11297 226
11298 226
11299 226
11300 226
11301 227
11302 227
11303 227
11304 227
11305 227
11306 227
11307 227
11308 227
11309 227
11310 227
11311 227
11312 227
11313 227
11314 227
11315 227
11316 227
11317 227
11318 227
11319 227
11320 227
11321 227
11322 227
11323 227
11324 227
11325 227
11326 227
11327 227
11328 227
11329 227
11330 227
11331 227
11332 227
11333 227
11334 227
11335 227
11336 227
11337 227
11338 227
11339 227
11340 227
11341 227
11342 227
11343 227
11344 227
11345 227
11346 227
11347 227
11348 227
11349 227
11350 227
11351 228
11352 228
11353 228
11354 228
11355 228
11356 228
11357 228
11358 228
11359 228
11360 228
11361 228
11362 228
11363 228
11364 228
11365 228
11366 228
11367 228
11368 228
11369 228
11370 228
11371 228
11372 228
11373 228
11374 228
11375 228
11376 228
11377 228
11378 228
11379 228
11380 228
11381 228
11382 228
11383 228
11384 228
11385 228
11386 228
11387 228
11388 228
11389 228
11390 228
11391 228
11392 228
11393 228
11394 228
11395 228
11396 228
11397 228
11398 228
11399 228
11400 228
11401 229
11402 229
11403 229
11404 229
11405 229
11406 229
11407 229
11408 229
11409 229
11410 229
11411 229
11412 229
11413 229
11414 229
11415 229
11416 229
11417 229
11418 229
11419 229
11420 229
11421 229
11422 229
11423 229
11424 229
11425 229
11426 229
11427 229
11428 229
11429 229
11430 229
11431 229
11432 229
11433 229
11434 229
11435 229
11436 229
11437 229
11438 229
11439 229
11440 229
11441 229
11442 229
11443 229
11444 229
11445 229
11446 229
11447 229
11448 229
11449 229
11450 229
11451 230
11452 230
11453 230
11454 230
11455 230
11456 230
11457 230
11458 230
11459 230
11460 230
11461 230
11462 230
11463 230
11464 230
11465 230
11466 230
11467 230
11468 230
11469 230
11470 230
11471 230
11472 230
11473 230
11474 230
11475 230
11476 230
11477 230
11478 230
11479 230
11480 230
11481 230
11482 230
11483 230
11484 230
11485 230
11486 230
11487 230
11488 230
11489 230
11490 230
11491 230
11492 230
11493 230
11494 230
11495 230
11496 230
11497 230
11498 230
11499 230
11500 230
11501 231
11502 231
11503 231
11504 231
11505 231
11506 231
11507 231
11508 231
11509 231
11510 231
11511 231
11512 231
11513 231
11514 231
11515 231
11516 231
11517 231
11518 231
11519 231
11520 231
11521 231
11522 231
11523 231
11524 231
11525 231
11526 231
11527 231
11528 231
11529 231
11530 231
11531 231
11532 231
11533 231
11534 231
11535 231
11536 231
11537 231
11538 231
11539 231
11540 231
11541 231
11542 231
11543 231
11544 231
11545 231
11546 231
11547 231
11548 231
11549 231
11550 231
11551 232
11552 232
11553 232
11554 232
11555 232
11556 232
11557 232
11558 232
11559 232
11560 232
11561 232
11562 232
11563 232
11564 232
11565 232
11566 232
11567 232
11568 232
11569 232
11570 232
11571 232
11572 232
11573 232
11574 232
11575 232
11576 232
11577 232
11578 232
11579 232
11580 232
11581 232
11582 232
11583 232
11584 232
11585 232
11586 232
11587 232
11588 232
11589 232
11590 232
11591 232
11592 232
11593 232
11594 232
11595 232
11596 232
11597 232
11598 232
11599 232
11600 232
11601 233
11602 233
11603 233
11604 233
11605 233
11606 233
11607 233
11608 233
11609 233
11610 233
11611 233
11612 233
11613 233
11614 233
11615 233
11616 233
11617 233
11618 233
11619 233
11620 233
11621 233
11622 233
11623 233
11624 233
11625 233
11626 233
11627 233
11628 233
11629 233
11630 233
11631 233
11632 233
11633 233
11634 233
11635 233
11636 233
11637 233
11638 233
11639 233
11640 233
11641 233
11642 233
11643 233
11644 233
11645 233
11646 233
11647 233
11648 233
11649 233
11650 233
11651 234
11652 234
11653 234
11654 234
11655 234
11656 234
11657 234
11658 234
11659 234
11660 234
11661 234
11662 234
11663 234
11664 234
11665 234
11666 234
11667 234
11668 234
11669 234
11670 234
11671 234
11672 234
11673 234
11674 234
11675 234
11676 234
11677 234
11678 234
11679 234
11680 234
11681 234
11682 234
11683 234
11684 234
11685 234
11686 234
11687 234
11688 234
11689 234
11690 234
11691 234
11692 234
11693 234
11694 234
11695 234
11696 234
11697 234
11698 234
11699 234
11700 234
11701 235
11702 235
11703 235
11704 235
11705 235
11706 235
11707 235
11708 235
11709 235
11710 235
11711 235
11712 235
11713 235
11714 235
11715 235
11716 235
11717 235
11718 235
11719 235
11720 235
11721 235
11722 235
11723 235
11724 235
11725 235
11726 235
11727 235
11728 235
11729 235
11730 235
11731 235
11732 235
11733 235
11734 235
11735 235
11736 235
11737 235
11738 235
11739 235
11740 235
11741 235
11742 235
11743 235
11744 235
11745 235
11746 235
11747 235
11748 235
11749 235
11750 235
11751 236
11752 236
11753 236
11754 236
11755 236
11756 236
11757 236
11758 236
11759 236
11760 236
11761 236
11762 236
11763 236
11764 236
11765 236
11766 236
11767 236
11768 236
11769 236
11770 236
11771 236
11772 236
11773 236
11774 236
11775 236
11776 236
11777 236
11778 236
11779 236
11780 236
11781 236
11782 236
11783 236
11784 236
11785 236
11786 236
11787 236
11788 236
11789 236
11790 236
11791 236
11792 236
11793 236
11794 236
11795 236
11796 236
11797 236
11798 236
11799 236
11800 236
11801 237
11802 237
11803 237
11804 237
11805 237
11806 237
11807 237
11808 237
11809 237
11810 237
11811 237
11812 237
11813 237
11814 237
11815 237
11816 237
11817 237
11818 237
11819 237
11820 237
11821 237
11822 237
11823 237
11824 237
11825 237
11826 237
11827 237
11828 237
11829 237
11830 237
11831 237
11832 237
11833 237
11834 237
11835 237
11836 237
11837 237
11838 237
11839 237
11840 237
11841 237
11842 237
11843 237
11844 237
11845 237
11846 237
11847 237
11848 237
11849 237
11850 237
11851 238
11852 238
11853 238
11854 238
11855 238
11856 238
11857 238
11858 238
11859 238
11860 238
11861 238
11862 238
11863 238
11864 238
11865 238
11866 238
11867 238
11868 238
11869 238
11870 238
11871 238
11872 238
11873 238
11874 238
11875 238
11876 238
11877 238
11878 238
11879 238
11880 238
11881 238
11882 238
11883 238
11884 238
11885 238
11886 238
11887 238
11888 238
11889 238
11890 238
11891 238
11892 238
11893 238
11894 238
11895 238
11896 238
11897 238
11898 238
11899 238
11900 238
11901 239
11902 239
11903 239
11904 239
11905 239
11906 239
11907 239
11908 239
11909 239
11910 239
11911 239
11912 239
11913 239
11914 239
11915 239
11916 239
11917 239
11918 239
11919 239
11920 239
11921 239
11922 239
11923 239
11924 239
11925 239
11926 239
11927 239
11928 239
11929 239
11930 239
11931 239
11932 239
11933 239
11934 239
11935 239
11936 239
11937 239
11938 239
11939 239
11940 239
11941 239
11942 239
11943 239
11944 239
11945 239
11946 239
11947 239
11948 239
11949 239
11950 239
11951 240
11952 240
11953 240
11954 240
11955 240
11956 240
11957 240
11958 240
11959 240
11960 240
11961 240
11962 240
11963 240
11964 240
11965 240
11966 240
11967 240
11968 240
11969 240
11970 240
11971 240
11972 240
11973 240
11974 240
11975 240
11976 240
11977 240
11978 240
11979 240
11980 240
11981 240
11982 240
11983 240
11984 240
11985 240
11986 240
11987 240
11988 240
11989 240
11990 240
11991 240
11992 240
11993 240
11994 240
11995 240
11996 240
11997 240
11998 240
11999 240
12000 240
12001 241
12002 241
12003 241
12004 241
12005 241
12006 241
12007 241
12008 241
12009 241
12010 241
12011 241
12012 241
12013 241
12014 241
12015 241
12016 241
12017 241
12018 241
12019 241
12020 241
12021 241
12022 241
12023 241
12024 241
12025 241
12026 241
12027 241
12028 241
12029 241
12030 241
12031 241
12032 241
12033 241
12034 241
12035 241
12036 241
12037 241
12038 241
12039 241
12040 241
12041 241
12042 241
12043 241
12044 241
12045 241
12046 241
12047 241
12048 241
12049 241
12050 241
12051 242
12052 242
12053 242
12054 242
12055 242
12056 242
12057 242
12058 242
12059 242
12060 242
12061 242
12062 242
12063 242
12064 242
12065 242
12066 242
12067 242
12068 242
12069 242
12070 242
12071 242
12072 242
12073 242
12074 242
12075 242
12076 242
12077 242
12078 242
12079 242
12080 242
12081 242
12082 242
12083 242
12084 242
12085 242
12086 242
12087 242
12088 242
12089 242
12090 242
12091 242
12092 242
12093 242
12094 242
12095 242
12096 242
12097 242
12098 242
12099 242
12100 242
12101 243
12102 243
12103 243
12104 243
12105 243
12106 243
12107 243
12108 243
12109 243
12110 243
12111 243
12112 243
12113 243
12114 243
12115 243
12116 243
12117 243
12118 243
12119 243
12120 243
12121 243
12122 243
12123 243
12124 243
12125 243
12126 243
12127 243
12128 243
12129 243
12130 243
12131 243
12132 243
12133 243
12134 243
12135 243
12136 243
12137 243
12138 243
12139 243
12140 243
12141 243
12142 243
12143 243
12144 243
12145 243
12146 243
12147 243
12148 243
12149 243
12150 243
12151 244
12152 244
12153 244
12154 244
12155 244
12156 244
12157 244
12158 244
12159 244
12160 244
12161 244
12162 244
12163 244
12164 244
12165 244
12166 244
12167 244
12168 244
12169 244
12170 244
12171 244
12172 244
12173 244
12174 244
12175 244
12176 244
12177 244
12178 244
12179 244
12180 244
12181 244
12182 244
12183 244
12184 244
12185 244
12186 244
12187 244
12188 244
12189 244
12190 244
12191 244
12192 244
12193 244
12194 244
12195 244
12196 244
12197 244
12198 244
12199 244
12200 244
12201 245
12202 245
12203 245
12204 245
12205 245
12206 245
12207 245
12208 245
12209 245
12210 245
12211 245
12212 245
12213 245
12214 245
12215 245
12216 245
12217 245
12218 245
12219 245
12220 245
12221 245
12222 245
12223 245
12224 245
12225 245
12226 245
12227 245
12228 245
12229 245
12230 245
12231 245
12232 245
12233 245
12234 245
12235 245
12236 245
12237 245
12238 245
12239 245
12240 245
12241 245
12242 245
12243 245
12244 245
12245 245
12246 245
12247 245
12248 245
12249 245
12250 245
12251 246
12252 246
12253 246
12254 246
12255 246
12256 246
12257 246
12258 246
12259 246
12260 246
12261 246
12262 246
12263 246
12264 246
12265 246
12266 246
12267 246
12268 246
12269 246
12270 246
12271 246
12272 246
12273 246
12274 246
12275 246
12276 246
12277 246
12278 246
12279 246
12280 246
12281 246
12282 246
12283 246
12284 246
12285 246
12286 246
12287 246
12288 246
12289 246
12290 246
12291 246
12292 246
12293 246
12294 246
12295 246
12296 246
12297 246
12298 246
12299 246
12300 246
12301 247
12302 247
12303 247
12304 247
12305 247
12306 247
12307 247
12308 247
12309 247
12310 247
12311 247
12312 247
12313 247
12314 247
12315 247
12316 247
12317 247
12318 247
12319 247
12320 247
12321 247
12322 247
12323 247
12324 247
12325 247
12326 247
12327 247
12328 247
12329 247
12330 247
12331 247
12332 247
12333 247
12334 247
12335 247
12336 247
12337 247
12338 247
12339 247
12340 247
12341 247
12342 247
12343 247
12344 247
12345 247
12346 247
12347 247
12348 247
12349 247
12350 247
12351 248
12352 248
12353 248
12354 248
12355 248
12356 248
12357 248
12358 248
12359 248
12360 248
12361 248
12362 248
12363 248
12364 248
12365 248
12366 248
12367 248
12368 248
12369 248
12370 248
12371 248
12372 248
12373 248
12374 248
12375 248
12376 248
12377 248
12378 248
12379 248
12380 248
12381 248
12382 248
12383 248
12384 248
12385 248
12386 248
12387 248
12388 248
12389 248
12390 248
12391 248
12392 248
12393 248
12394 248
12395 248
12396 248
12397 248
12398 248
12399 248
12400 248
12401 249
12402 249
12403 249
12404 249
12405 249
12406 249
12407 249
12408 249
12409 249
12410 249
12411 249
12412 249
12413 249
12414 249
12415 249
12416 249
12417 249
12418 249
12419 249
12420 249
12421 249
12422 249
12423 249
12424 249
12425 249
12426 249
12427 249
12428 249
12429 249
12430 249
12431 249
12432 249
12433 249
12434 249
12435 249
12436 249
12437 249
12438 249
12439 249
12440 249
12441 249
12442 249
12443 249
12444 249
12445 249
12446 249
12447 249
12448 249
12449 249
12450 249
12451 250
12452 250
12453 250
12454 250
12455 250
12456 250
12457 250
12458 250
12459 250
12460 250
12461 250
12462 250
12463 250
12464 250
12465 250
12466 250
12467 250
12468 250
12469 250
12470 250
12471 250
12472 250
12473 250
12474 250
12475 250
12476 250
12477 250
12478 250
12479 250
12480 250
12481 250
12482 250
12483 250
12484 250
12485 250
12486 250
12487 250
12488 250
12489 250
12490 250
12491 250
12492 250
12493 250
12494 250
12495 250
12496 250
12497 250
12498 250
12499 250
12500 250
12501 251
12502 251
12503 251
12504 251
12505 251
12506 251
12507 251
12508 251
12509 251
12510 251
12511 251
12512 251
12513 251
12514 251
12515 251
12516 251
12517 251
12518 251
12519 251
12520 251
12521 251
12522 251
12523 251
12524 251
12525 251
12526 251
12527 251
12528 251
12529 251
12530 251
12531 251
12532 251
12533 251
12534 251
12535 251
12536 251
12537 251
12538 251
12539 251
12540 251
12541 251
12542 251
12543 251
12544 251
12545 251
12546 251
12547 251
12548 251
12549 251
12550 251
12551 252
12552 252
12553 252
12554 252
12555 252
12556 252
12557 252
12558 252
12559 252
12560 252
12561 252
12562 252
12563 252
12564 252
12565 252
12566 252
12567 252
12568 252
12569 252
12570 252
12571 252
12572 252
12573 252
12574 252
12575 252
12576 252
12577 252
12578 252
12579 252
12580 252
12581 252
12582 252
12583 252
12584 252
12585 252
12586 252
12587 252
12588 252
12589 252
12590 252
12591 252
12592 252
12593 252
12594 252
12595 252
12596 252
12597 252
12598 252
12599 252
12600 252
12601 253
12602 253
12603 253
12604 253
12605 253
12606 253
12607 253
12608 253
12609 253
12610 253
12611 253
12612 253
12613 253
12614 253
12615 253
12616 253
12617 253
12618 253
12619 253
12620 253
12621 253
12622 253
12623 253
12624 253
12625 253
12626 253
12627 253
12628 253
12629 253
12630 253
12631 253
12632 253
12633 253
12634 253
12635 253
12636 253
12637 253
12638 253
12639 253
12640 253
12641 253
12642 253
12643 253
12644 253
12645 253
12646 253
12647 253
12648 253
12649 253
12650 253
12651 254
12652 254
12653 254
12654 254
12655 254
12656 254
12657 254
12658 254
12659 254
12660 254
12661 254
12662 254
12663 254
12664 254
12665 254
12666 254
12667 254
12668 254
12669 254
12670 254
12671 254
12672 254
12673 254
12674 254
12675 254
12676 254
12677 254
12678 254
12679 254
12680 254
12681 254
12682 254
12683 254
12684 254
12685 254
12686 254
12687 254
12688 254
12689 254
12690 254
12691 254
12692 254
12693 254
12694 254
12695 254
12696 254
12697 254
12698 254
12699 254
12700 254
12701 255
12702 255
12703 255
12704 255
12705 255
12706 255
12707 255
12708 255
12709 255
12710 255
12711 255
12712 255
12713 255
12714 255
12715 255
12716 255
12717 255
12718 255
12719 255
12720 255
12721 255
12722 255
12723 255
12724 255
12725 255
12726 255
12727 255
12728 255
12729 255
12730 255
12731 255
12732 255
12733 255
12734 255
12735 255
12736 255
12737 255
12738 255
12739 255
12740 255
12741 255
12742 255
12743 255
12744 255
12745 255
12746 255
12747 255
12748 255
12749 255
12750 255
12751 256
12752 256
12753 256
12754 256
12755 256
12756 256
12757 256
12758 256
12759 256
12760 256
12761 256
12762 256
12763 256
12764 256
12765 256
12766 256
12767 256
12768 256
12769 256
12770 256
12771 256
12772 256
12773 256
12774 256
12775 256
12776 256
12777 256
12778 256
12779 256
12780 256
12781 256
12782 256
12783 256
12784 256
12785 256
12786 256
12787 256
12788 256
12789 256
12790 256
12791 256
12792 256
12793 256
12794 256
12795 256
12796 256
12797 256
12798 256
12799 256
12800 256
12801 257
12802 257
12803 257
12804 257
12805 257
12806 257
12807 257
12808 257
12809 257
12810 257
12811 257
12812 257
12813 257
12814 257
12815 257
12816 257
12817 257
12818 257
12819 257
12820 257
12821 257
12822 257
12823 257
12824 257
12825 257
12826 257
12827 257
12828 257
12829 257
12830 257
12831 257
12832 257
12833 257
12834 257
12835 257
12836 257
12837 257
12838 257
12839 257
12840 257
12841 257
12842 257
12843 257
12844 257
12845 257
12846 257
12847 257
12848 257
12849 257
12850 257
12851 258
12852 258
12853 258
12854 258
12855 258
12856 258
12857 258
12858 258
12859 258
12860 258
12861 258
12862 258
12863 258
12864 258
12865 258
12866 258
12867 258
12868 258
12869 258
12870 258
12871 258
12872 258
12873 258
12874 258
12875 258
12876 258
12877 258
12878 258
12879 258
12880 258
12881 258
12882 258
12883 258
12884 258
12885 258
12886 258
12887 258
12888 258
12889 258
12890 258
12891 258
12892 258
12893 258
12894 258
12895 258
12896 258
12897 258
12898 258
12899 258
12900 258
12901 259
12902 259
12903 259
12904 259
12905 259
12906 259
12907 259
12908 259
12909 259
12910 259
12911 259
12912 259
12913 259
12914 259
12915 259
12916 259
12917 259
12918 259
12919 259
12920 259
12921 259
12922 259
12923 259
12924 259
12925 259
12926 259
12927 259
12928 259
12929 259
12930 259
12931 259
12932 259
12933 259
12934 259
12935 259
12936 259
12937 259
12938 259
12939 259
12940 259
12941 259
12942 259
12943 259
12944 259
12945 259
12946 259
12947 259
12948 259
12949 259
12950 259
12951 260
12952 260
12953 260
12954 260
12955 260
12956 260
12957 260
12958 260
12959 260
12960 260
12961 260
12962 260
12963 260
12964 260
12965 260
12966 260
12967 260
12968 260
12969 260
12970 260
12971 260
12972 260
12973 260
12974 260
12975 260
12976 260
12977 260
12978 260
12979 260
12980 260
12981 260
12982 260
12983 260
12984 260
12985 260
12986 260
12987 260
12988 260
12989 260
12990 260
12991 260
12992 260
12993 260
12994 260
12995 260
12996 260
12997 260
12998 260
12999 260
13000 260
13001 261
13002 261
13003 261
13004 261
13005 261
13006 261
13007 261
13008 261
13009 261
13010 261
13011 261
13012 261
13013 261
13014 261
13015 261
13016 261
13017 261
13018 261
13019 261
13020 261
13021 261
13022 261
13023 261
13024 261
13025 261
13026 261
13027 261
13028 261
13029 261
13030 261
13031 261
13032 261
13033 261
13034 261
13035 261
13036 261
13037 261
13038 261
13039 261
13040 261
13041 261
13042 261
13043 261
13044 261
13045 261
13046 261
13047 261
13048 261
13049 261
13050 261
13051 262
13052 262
13053 262
13054 262
13055 262
13056 262
13057 262
13058 262
13059 262
13060 262
13061 262
13062 262
13063 262
13064 262
13065 262
13066 262
13067 262
13068 262
13069 262
13070 262
13071 262
13072 262
13073 262
13074 262
13075 262
13076 262
13077 262
13078 262
13079 262
13080 262
13081 262
13082 262
13083 262
13084 262
13085 262
13086 262
13087 262
13088 262
13089 262
13090 262
13091 262
13092 262
13093 262
13094 262
13095 262
13096 262
13097 262
13098 262
13099 262
13100 262
13101 263
13102 263
13103 263
13104 263
13105 263
13106 263
13107 263
13108 263
13109 263
13110 263
13111 263
13112 263
13113 263
13114 263
13115 263
13116 263
13117 263
13118 263
13119 263
13120 263
13121 263
13122 263
13123 263
13124 263
13125 263
13126 263
13127 263
13128 263
13129 263
13130 263
13131 263
13132 263
13133 263
13134 263
13135 263
13136 263
13137 263
13138 263
13139 263
13140 263
13141 263
13142 263
13143 263
13144 263
13145 263
13146 263
13147 263
13148 263
13149 263
13150 263
13151 264
13152 264
13153 264
13154 264
13155 264
13156 264
13157 264
13158 264
13159 264
13160 264
13161 264
13162 264
13163 264
13164 264
13165 264
13166 264
13167 264
13168 264
13169 264
13170 264
13171 264
13172 264
13173 264
13174 264
13175 264
13176 264
13177 264
13178 264
13179 264
13180 264
13181 264
13182 264
13183 264
13184 264
13185 264
13186 264
13187 264
13188 264
13189 264
13190 264
13191 264
13192 264
13193 264
13194 264
13195 264
13196 264
13197 264
13198 264
13199 264
13200 264
13201 265
13202 265
13203 265
13204 265
13205 265
13206 265
13207 265
13208 265
13209 265
13210 265
13211 265
13212 265
13213 265
13214 265
13215 265
13216 265
13217 265
13218 265
13219 265
13220 265
13221 265
13222 265
13223 265
13224 265
13225 265
13226 265
13227 265
13228 265
13229 265
13230 265
13231 265
13232 265
13233 265
13234 265
13235 265
13236 265
13237 265
13238 265
13239 265
13240 265
13241 265
13242 265
13243 265
13244 265
13245 265
13246 265
13247 265
13248 265
13249 265
13250 265
13251 266
13252 266
13253 266
13254 266
13255 266
13256 266
13257 266
13258 266
13259 266
13260 266
13261 266
13262 266
13263 266
13264 266
13265 266
13266 266
13267 266
13268 266
13269 266
13270 266
13271 266
13272 266
13273 266
13274 266
13275 266
13276 266
13277 266
13278 266
13279 266
13280 266
13281 266
13282 266
13283 266
13284 266
13285 266
13286 266
13287 266
13288 266
13289 266
13290 266
13291 266
13292 266
13293 266
13294 266
13295 266
13296 266
13297 266
13298 266
13299 266
13300 266
13301 267
13302 267
13303 267
13304 267
13305 267
13306 267
13307 267
13308 267
13309 267
13310 267
13311 267
13312 267
13313 267
13314 267
13315 267
13316 267
13317 267
13318 267
13319 267
13320 267
13321 267
13322 267
13323 267
13324 267
13325 267
13326 267
13327 267
13328 267
13329 267
13330 267
13331 267
13332 267
13333 267
13334 267
13335 267
13336 267
13337 267
13338 267
13339 267
13340 267
13341 267
13342 267
13343 267
13344 267
13345 267
13346 267
13347 267
13348 267
13349 267
13350 267
13351 268
13352 268
13353 268
13354 268
13355 268
13356 268
13357 268
13358 268
13359 268
13360 268
13361 268
13362 268
13363 268
13364 268
13365 268
13366 268
13367 268
13368 268
13369 268
13370 268
13371 268
13372 268
13373 268
13374 268
13375 268
13376 268
13377 268
13378 268
13379 268
13380 268
13381 268
13382 268
13383 268
13384 268
13385 268
13386 268
13387 268
13388 268
13389 268
13390 268
13391 268
13392 268
13393 268
13394 268
13395 268
13396 268
13397 268
13398 268
13399 268
13400 268
13401 269
13402 269
13403 269
13404 269
13405 269
13406 269
13407 269
13408 269
13409 269
13410 269
13411 269
13412 269
13413 269
13414 269
13415 269
13416 269
13417 269
13418 269
13419 269
13420 269
13421 269
13422 269
13423 269
13424 269
13425 269
13426 269
13427 269
13428 269
13429 269
13430 269
13431 269
13432 269
13433 269
13434 269
13435 269
13436 269
13437 269
13438 269
13439 269
13440 269
13441 269
13442 269
13443 269
13444 269
13445 269
13446 269
13447 269
13448 269
13449 269
13450 269
13451 270
13452 270
13453 270
13454 270
13455 270
13456 270
13457 270
13458 270
13459 270
13460 270
13461 270
13462 270
13463 270
13464 270
13465 270
13466 270
13467 270
13468 270
13469 270
13470 270
13471 270
13472 270
13473 270
13474 270
13475 270
13476 270
13477 270
13478 270
13479 270
13480 270
13481 270
13482 270
13483 270
13484 270
13485 270
13486 270
13487 270
13488 270
13489 270
13490 270
13491 270
13492 270
13493 270
13494 270
13495 270
13496 270
13497 270
13498 270
13499 270
13500 270
13501 271
13502 271
13503 271
13504 271
13505 271
13506 271
13507 271
13508 271
13509 271
13510 271
13511 271
13512 271
13513 271
13514 271
13515 271
13516 271
13517 271
13518 271
13519 271
13520 271
13521 271
13522 271
13523 271
13524 271
13525 271
13526 271
13527 271
13528 271
13529 271
13530 271
13531 271
13532 271
13533 271
13534 271
13535 271
13536 271
13537 271
13538 271
13539 271
13540 271
13541 271
13542 271
13543 271
13544 271
13545 271
13546 271
13547 271
13548 271
13549 271
13550 271
13551 272
13552 272
13553 272
13554 272
13555 272
13556 272
13557 272
13558 272
13559 272
13560 272
13561 272
13562 272
13563 272
13564 272
13565 272
13566 272
13567 272
13568 272
13569 272
13570 272
13571 272
13572 272
13573 272
13574 272
13575 272
13576 272
13577 272
13578 272
13579 272
13580 272
13581 272
13582 272
13583 272
13584 272
13585 272
13586 272
13587 272
13588 272
13589 272
13590 272
13591 272
13592 272
13593 272
13594 272
13595 272
13596 272
13597 272
13598 272
13599 272
13600 272
13601 273
13602 273
13603 273
13604 273
13605 273
13606 273
13607 273
13608 273
13609 273
13610 273
13611 273
13612 273
13613 273
13614 273
13615 273
13616 273
13617 273
13618 273
13619 273
13620 273
13621 273
13622 273
13623 273
13624 273
13625 273
13626 273
13627 273
13628 273
13629 273
13630 273
13631 273
13632 273
13633 273
13634 273
13635 273
13636 273
13637 273
13638 273
13639 273
13640 273
13641 273
13642 273
13643 273
13644 273
13645 273
13646 273
13647 273
13648 273
13649 273
13650 273
13651 274
13652 274
13653 274
13654 274
13655 274
13656 274
13657 274
13658 274
13659 274
13660 274
13661 274
13662 274
13663 274
13664 274
13665 274
13666 274
13667 274
13668 274
13669 274
13670 274
13671 274
13672 274
13673 274
13674 274
13675 274
13676 274
13677 274
13678 274
13679 274
13680 274
13681 274
13682 274
13683 274
13684 274
13685 274
13686 274
13687 274
13688 274
13689 274
13690 274
13691 274
13692 274
13693 274
13694 274
13695 274
13696 274
13697 274
13698 274
13699 274
13700 274
13701 275
13702 275
13703 275
13704 275
13705 275
13706 275
13707 275
13708 275
13709 275
13710 275
13711 275
13712 275
13713 275
13714 275
13715 275
13716 275
13717 275
13718 275
13719 275
13720 275
13721 275
13722 275
13723 275
13724 275
13725 275
13726 275
13727 275
13728 275
13729 275
13730 275
13731 275
13732 275
13733 275
13734 275
13735 275
13736 275
13737 275
13738 275
13739 275
13740 275
13741 275
13742 275
13743 275
13744 275
13745 275
13746 275
13747 275
13748 275
13749 275
13750 275
13751 276
13752 276
13753 276
13754 276
13755 276
13756 276
13757 276
13758 276
13759 276
13760 276
13761 276
13762 276
13763 276
13764 276
13765 276
13766 276
13767 276
13768 276
13769 276
13770 276
13771 276
13772 276
13773 276
13774 276
13775 276
13776 276
13777 276
13778 276
13779 276
13780 276
13781 276
13782 276
13783 276
13784 276
13785 276
13786 276
13787 276
13788 276
13789 276
13790 276
13791 276
13792 276
13793 276
13794 276
13795 276
13796 276
13797 276
13798 276
13799 276
13800 276
13801 277
13802 277
13803 277
13804 277
13805 277
13806 277
13807 277
13808 277
13809 277
13810 277
13811 277
13812 277
13813 277
13814 277
13815 277
13816 277
13817 277
13818 277
13819 277
13820 277
13821 277
13822 277
13823 277
13824 277
13825 277
13826 277
13827 277
13828 277
13829 277
13830 277
13831 277
13832 277
13833 277
13834 277
13835 277
13836 277
13837 277
13838 277
13839 277
13840 277
13841 277
13842 277
13843 277
13844 277
13845 277
13846 277
13847 277
13848 277
13849 277
13850 277
13851 278
13852 278
13853 278
13854 278
13855 278
13856 278
13857 278
13858 278
13859 278
13860 278
13861 278
13862 278
13863 278
13864 278
13865 278
13866 278
13867 278
13868 278
13869 278
13870 278
13871 278
13872 278
13873 278
13874 278
13875 278
13876 278
13877 278
13878 278
13879 278
13880 278
13881 278
13882 278
13883 278
13884 278
13885 278
13886 278
13887 278
13888 278
13889 278
13890 278
13891 278
13892 278
13893 278
13894 278
13895 278
13896 278
13897 278
13898 278
13899 278
13900 278
13901 279
13902 279
13903 279
13904 279
13905 279
13906 279
13907 279
13908 279
13909 279
13910 279
13911 279
13912 279
13913 279
13914 279
13915 279
13916 279
13917 279
13918 279
13919 279
13920 279
13921 279
13922 279
13923 279
13924 279
13925 279
13926 279
13927 279
13928 279
13929 279
13930 279
13931 279
13932 279
13933 279
13934 279
13935 279
13936 279
13937 279
13938 279
13939 279
13940 279
13941 279
13942 279
13943 279
13944 279
13945 279
13946 279
13947 279
13948 279
13949 279
13950 279
13951 280
13952 280
13953 280
13954 280
13955 280
13956 280
13957 280
13958 280
13959 280
13960 280
13961 280
13962 280
13963 280
13964 280
13965 280
13966 280
13967 280
13968 280
13969 280
13970 280
13971 280
13972 280
13973 280
13974 280
13975 280
13976 280
13977 280
13978 280
13979 280
13980 280
13981 280
13982 280
13983 280
13984 280
13985 280
13986 280
13987 280
13988 280
13989 280
13990 280
13991 280
13992 280
13993 280
13994 280
13995 280
13996 280
13997 280
13998 280
13999 280
14000 280
14001 281
14002 281
14003 281
14004 281
14005 281
14006 281
14007 281
14008 281
14009 281
14010 281
14011 281
14012 281
14013 281
14014 281
14015 281
14016 281
14017 281
14018 281
14019 281
14020 281
14021 281
14022 281
14023 281
14024 281
14025 281
14026 281
14027 281
14028 281
14029 281
14030 281
14031 281
14032 281
14033 281
14034 281
14035 281
14036 281
14037 281
14038 281
14039 281
14040 281
14041 281
14042 281
14043 281
14044 281
14045 281
14046 281
14047 281
14048 281
14049 281
14050 281
14051 282
14052 282
14053 282
14054 282
14055 282
14056 282
14057 282
14058 282
14059 282
14060 282
14061 282
14062 282
14063 282
14064 282
14065 282
14066 282
14067 282
14068 282
14069 282
14070 282
14071 282
14072 282
14073 282
14074 282
14075 282
14076 282
14077 282
14078 282
14079 282
14080 282
14081 282
14082 282
14083 282
14084 282
14085 282
14086 282
14087 282
14088 282
14089 282
14090 282
14091 282
14092 282
14093 282
14094 282
14095 282
14096 282
14097 282
14098 282
14099 282
14100 282
14101 283
14102 283
14103 283
14104 283
14105 283
14106 283
14107 283
14108 283
14109 283
14110 283
14111 283
14112 283
14113 283
14114 283
14115 283
14116 283
14117 283
14118 283
14119 283
14120 283
14121 283
14122 283
14123 283
14124 283
14125 283
14126 283
14127 283
14128 283
14129 283
14130 283
14131 283
14132 283
14133 283
14134 283
14135 283
14136 283
14137 283
14138 283
14139 283
14140 283
14141 283
14142 283
14143 283
14144 283
14145 283
14146 283
14147 283
14148 283
14149 283
14150 283
14151 284
14152 284
14153 284
14154 284
14155 284
14156 284
14157 284
14158 284
14159 284
14160 284
14161 284
14162 284
14163 284
14164 284
14165 284
14166 284
14167 284
14168 284
14169 284
14170 284
14171 284
14172 284
14173 284
14174 284
14175 284
14176 284
14177 284
14178 284
14179 284
14180 284
14181 284
14182 284
14183 284
14184 284
14185 284
14186 284
14187 284
14188 284
14189 284
14190 284
14191 284
14192 284
14193 284
14194 284
14195 284
14196 284
14197 284
14198 284
14199 284
14200 284
14201 285
14202 285
14203 285
14204 285
14205 285
14206 285
14207 285
14208 285
14209 285
14210 285
14211 285
14212 285
14213 285
14214 285
14215 285
14216 285
14217 285
14218 285
14219 285
14220 285
14221 285
14222 285
14223 285
14224 285
14225 285
14226 285
14227 285
14228 285
14229 285
14230 285
14231 285
14232 285
14233 285
14234 285
14235 285
14236 285
14237 285
14238 285
14239 285
14240 285
14241 285
14242 285
14243 285
14244 285
14245 285
14246 285
14247 285
14248 285
14249 285
14250 285
14251 286
14252 286
14253 286
14254 286
14255 286
14256 286
14257 286
14258 286
14259 286
14260 286
14261 286
14262 286
14263 286
14264 286
14265 286
14266 286
14267 286
14268 286
14269 286
14270 286
14271 286
14272 286
14273 286
14274 286
14275 286
14276 286
14277 286
14278 286
14279 286
14280 286
14281 286
14282 286
14283 286
14284 286
14285 286
14286 286
14287 286
14288 286
14289 286
14290 286
14291 286
14292 286
14293 286
14294 286
14295 286
14296 286
14297 286
14298 286
14299 286
14300 286
14301 287
14302 287
14303 287
14304 287
14305 287
14306 287
14307 287
14308 287
14309 287
14310 287
14311 287
14312 287
14313 287
14314 287
14315 287
14316 287
14317 287
14318 287
14319 287
14320 287
14321 287
14322 287
14323 287
14324 287
14325 287
14326 287
14327 287
14328 287
14329 287
14330 287
14331 287
14332 287
14333 287
14334 287
14335 287
14336 287
14337 287
14338 287
14339 287
14340 287
14341 287
14342 287
14343 287
14344 287
14345 287
14346 287
14347 287
14348 287
14349 287
14350 287
14351 288
14352 288
14353 288
14354 288
14355 288
14356 288
14357 288
14358 288
14359 288
14360 288
14361 288
14362 288
14363 288
14364 288
14365 288
14366 288
14367 288
14368 288
14369 288
14370 288
14371 288
14372 288
14373 288
14374 288
14375 288
14376 288
14377 288
14378 288
14379 288
14380 288
14381 288
14382 288
14383 288
14384 288
14385 288
14386 288
14387 288
14388 288
14389 288
14390 288
14391 288
14392 288
14393 288
14394 288
14395 288
14396 288
14397 288
14398 288
14399 288
14400 288
14401 289
14402 289
14403 289
14404 289
14405 289
14406 289
14407 289
14408 289
14409 289
14410 289
14411 289
14412 289
14413 289
14414 289
14415 289
14416 289
14417 289
14418 289
14419 289
14420 289
14421 289
14422 289
14423 289
14424 289
14425 289
14426 289
14427 289
14428 289
14429 289
14430 289
14431 289
14432 289
14433 289
14434 289
14435 289
14436 289
14437 289
14438 289
14439 289
14440 289
14441 289
14442 289
14443 289
14444 289
14445 289
14446 289
14447 289
14448 289
14449 289
14450 289
14451 290
14452 290
14453 290
14454 290
14455 290
14456 290
14457 290
14458 290
14459 290
14460 290
14461 290
14462 290
14463 290
14464 290
14465 290
14466 290
14467 290
14468 290
14469 290
14470 290
14471 290
14472 290
14473 290
14474 290
14475 290
14476 290
14477 290
14478 290
14479 290
14480 290
14481 290
14482 290
14483 290
14484 290
14485 290
14486 290
14487 290
14488 290
14489 290
14490 290
14491 290
14492 290
14493 290
14494 290
14495 290
14496 290
14497 290
14498 290
14499 290
14500 290
14501 291
14502 291
14503 291
14504 291
14505 291
14506 291
14507 291
14508 291
14509 291
14510 291
14511 291
14512 291
14513 291
14514 291
14515 291
14516 291
14517 291
14518 291
14519 291
14520 291
14521 291
14522 291
14523 291
14524 291
14525 291
14526 291
14527 291
14528 291
14529 291
14530 291
14531 291
14532 291
14533 291
14534 291
14535 291
14536 291
14537 291
14538 291
14539 291
14540 291
14541 291
14542 291
14543 291
14544 291
14545 291
14546 291
14547 291
14548 291
14549 291
14550 291
14551 292
14552 292
14553 292
14554 292
14555 292
14556 292
14557 292
14558 292
14559 292
14560 292
14561 292
14562 292
14563 292
14564 292
14565 292
14566 292
14567 292
14568 292
14569 292
14570 292
14571 292
14572 292
14573 292
14574 292
14575 292
14576 292
14577 292
14578 292
14579 292
14580 292
14581 292
14582 292
14583 292
14584 292
14585 292
14586 292
14587 292
14588 292
14589 292
14590 292
14591 292
14592 292
14593 292
14594 292
14595 292
14596 292
14597 292
14598 292
14599 292
14600 292
14601 293
14602 293
14603 293
14604 293
14605 293
14606 293
14607 293
14608 293
14609 293
14610 293
14611 293
14612 293
14613 293
14614 293
14615 293
14616 293
14617 293
14618 293
14619 293
14620 293
14621 293
14622 293
14623 293
14624 293
14625 293
14626 293
14627 293
14628 293
14629 293
14630 293
14631 293
14632 293
14633 293
14634 293
14635 293
14636 293
14637 293
14638 293
14639 293
14640 293
14641 293
14642 293
14643 293
14644 293
14645 293
14646 293
14647 293
14648 293
14649 293
14650 293
14651 294
14652 294
14653 294
14654 294
14655 294
14656 294
14657 294
14658 294
14659 294
14660 294
14661 294
14662 294
14663 294
14664 294
14665 294
14666 294
14667 294
14668 294
14669 294
14670 294
14671 294
14672 294
14673 294
14674 294
14675 294
14676 294
14677 294
14678 294
14679 294
14680 294
14681 294
14682 294
14683 294
14684 294
14685 294
14686 294
14687 294
14688 294
14689 294
14690 294
14691 294
14692 294
14693 294
14694 294
14695 294
14696 294
14697 294
14698 294
14699 294
14700 294
14701 295
14702 295
14703 295
14704 295
14705 295
14706 295
14707 295
14708 295
14709 295
14710 295
14711 295
14712 295
14713 295
14714 295
14715 295
14716 295
14717 295
14718 295
14719 295
14720 295
14721 295
14722 295
14723 295
14724 295
14725 295
14726 295
14727 295
14728 295
14729 295
14730 295
14731 295
14732 295
14733 295
14734 295
14735 295
14736 295
14737 295
14738 295
14739 295
14740 295
14741 295
14742 295
14743 295
14744 295
14745 295
14746 295
14747 295
14748 295
14749 295
14750 295
14751 296
14752 296
14753 296
14754 296
14755 296
14756 296
14757 296
14758 296
14759 296
14760 296
14761 296
14762 296
14763 296
14764 296
14765 296
14766 296
14767 296
14768 296
14769 296
14770 296
14771 296
14772 296
14773 296
14774 296
14775 296
14776 296
14777 296
14778 296
14779 296
14780 296
14781 296
14782 296
14783 296
14784 296
14785 296
14786 296
14787 296
14788 296
14789 296
14790 296
14791 296
14792 296
14793 296
14794 296
14795 296
14796 296
14797 296
14798 296
14799 296
14800 296
14801 297
14802 297
14803 297
14804 297
14805 297
14806 297
14807 297
14808 297
14809 297
14810 297
14811 297
14812 297
14813 297
14814 297
14815 297
14816 297
14817 297
14818 297
14819 297
14820 297
14821 297
14822 297
14823 297
14824 297
14825 297
14826 297
14827 297
14828 297
14829 297
14830 297
14831 297
14832 297
14833 297
14834 297
14835 297
14836 297
14837 297
14838 297
14839 297
14840 297
14841 297
14842 297
14843 297
14844 297
14845 297
14846 297
14847 297
14848 297
14849 297
14850 297
14851 298
14852 298
14853 298
14854 298
14855 298
14856 298
14857 298
14858 298
14859 298
14860 298
14861 298
14862 298
14863 298
14864 298
14865 298
14866 298
14867 298
14868 298
14869 298
14870 298
14871 298
14872 298
14873 298
14874 298
14875 298
14876 298
14877 298
14878 298
14879 298
14880 298
14881 298
14882 298
14883 298
14884 298
14885 298
14886 298
14887 298
14888 298
14889 298
14890 298
14891 298
14892 298
14893 298
14894 298
14895 298
14896 298
14897 298
14898 298
14899 298
14900 298
14901 299
14902 299
14903 299
14904 299
14905 299
14906 299
14907 299
14908 299
14909 299
14910 299
14911 299
14912 299
14913 299
14914 299
14915 299
14916 299
14917 299
14918 299
14919 299
14920 299
14921 299
14922 299
14923 299
14924 299
14925 299
14926 299
14927 299
14928 299
14929 299
14930 299
14931 299
14932 299
14933 299
14934 299
14935 299
14936 299
14937 299
14938 299
14939 299
14940 299
14941 299
14942 299
14943 299
14944 299
14945 299
14946 299
14947 299
14948 299
14949 299
14950 299
14951 300
14952 300
14953 300
14954 300
14955 300
14956 300
14957 300
14958 300
14959 300
14960 300
14961 300
14962 300
14963 300
14964 300
14965 300
14966 300
14967 300
14968 300
14969 300
14970 300
14971 300
14972 300
14973 300
14974 300
14975 300
14976 300
14977 300
14978 300
14979 300
14980 300
14981 300
14982 300
14983 300
14984 300
14985 300
14986 300
14987 300
14988 300
14989 300
14990 300
14991 300
14992 300
14993 300
14994 300
14995 300
14996 300
14997 300
14998 300
14999 300
15000 300
15001 301
15002 301
15003 301
15004 301
15005 301
15006 301
15007 301
15008 301
15009 301
15010 301
15011 301
15012 301
15013 301
15014 301
15015 301
15016 301
15017 301
15018 301
15019 301
15020 301
15021 301
15022 301
15023 301
15024 301
15025 301
15026 301
15027 301
15028 301
15029 301
15030 301
15031 301
15032 301
15033 301
15034 301
15035 301
15036 301
15037 301
15038 301
15039 301
15040 301
15041 301
15042 301
15043 301
15044 301
15045 301
15046 301
15047 301
15048 301
15049 301
15050 301
15051 302
15052 302
15053 302
15054 302
15055 302
15056 302
15057 302
15058 302
15059 302
15060 302
15061 302
15062 302
15063 302
15064 302
15065 302
15066 302
15067 302
15068 302
15069 302
15070 302
15071 302
15072 302
15073 302
15074 302
15075 302
15076 302
15077 302
15078 302
15079 302
15080 302
15081 302
15082 302
15083 302
15084 302
15085 302
15086 302
15087 302
15088 302
15089 302
15090 302
15091 302
15092 302
15093 302
15094 302
15095 302
15096 302
15097 302
15098 302
15099 302
15100 302
15101 303
15102 303
15103 303
15104 303
15105 303
15106 303
15107 303
15108 303
15109 303
15110 303
15111 303
15112 303
15113 303
15114 303
15115 303
15116 303
15117 303
15118 303
15119 303
15120 303
15121 303
15122 303
15123 303
15124 303
15125 303
15126 303
15127 303
15128 303
15129 303
15130 303
15131 303
15132 303
15133 303
15134 303
15135 303
15136 303
15137 303
15138 303
15139 303
15140 303
15141 303
15142 303
15143 303
15144 303
15145 303
15146 303
15147 303
15148 303
15149 303
15150 303
15151 304
15152 304
15153 304
15154 304
15155 304
15156 304
15157 304
15158 304
15159 304
15160 304
15161 304
15162 304
15163 304
15164 304
15165 304
15166 304
15167 304
15168 304
15169 304
15170 304
15171 304
15172 304
15173 304
15174 304
15175 304
15176 304
15177 304
15178 304
15179 304
15180 304
15181 304
15182 304
15183 304
15184 304
15185 304
15186 304
15187 304
15188 304
15189 304
15190 304
15191 304
15192 304
15193 304
15194 304
15195 304
15196 304
15197 304
15198 304
15199 304
15200 304
15201 305
15202 305
15203 305
15204 305
15205 305
15206 305
15207 305
15208 305
15209 305
15210 305
15211 305
15212 305
15213 305
15214 305
15215 305
15216 305
15217 305
15218 305
15219 305
15220 305
15221 305
15222 305
15223 305
15224 305
15225 305
15226 305
15227 305
15228 305
15229 305
15230 305
15231 305
15232 305
15233 305
15234 305
15235 305
15236 305
15237 305
15238 305
15239 305
15240 305
15241 305
15242 305
15243 305
15244 305
15245 305
15246 305
15247 305
15248 305
15249 305
15250 305
15251 306
15252 306
15253 306
15254 306
15255 306
15256 306
15257 306
15258 306
15259 306
15260 306
15261 306
15262 306
15263 306
15264 306
15265 306
15266 306
15267 306
15268 306
15269 306
15270 306
15271 306
15272 306
15273 306
15274 306
15275 306
15276 306
15277 306
15278 306
15279 306
15280 306
15281 306
15282 306
15283 306
15284 306
15285 306
15286 306
15287 306
15288 306
15289 306
15290 306
15291 306
15292 306
15293 306
15294 306
15295 306
15296 306
15297 306
15298 306
15299 306
15300 306
15301 307
15302 307
15303 307
15304 307
15305 307
15306 307
15307 307
15308 307
15309 307
15310 307
15311 307
15312 307
15313 307
15314 307
15315 307
15316 307
15317 307
15318 307
15319 307
15320 307
15321 307
15322 307
15323 307
15324 307
15325 307
15326 307
15327 307
15328 307
15329 307
15330 307
15331 307
15332 307
15333 307
15334 307
15335 307
15336 307
15337 307
15338 307
15339 307
15340 307
15341 307
15342 307
15343 307
15344 307
15345 307
15346 307
15347 307
15348 307
15349 307
15350 307
15351 308
15352 308
15353 308
15354 308
15355 308
15356 308
15357 308
15358 308
15359 308
15360 308
15361 308
15362 308
15363 308
15364 308
15365 308
15366 308
15367 308
15368 308
15369 308
15370 308
15371 308
15372 308
15373 308
15374 308
15375 308
15376 308
15377 308
15378 308
15379 308
15380 308
15381 308
15382 308
15383 308
15384 308
15385 308
15386 308
15387 308
15388 308
15389 308
15390 308
15391 308
15392 308
15393 308
15394 308
15395 308
15396 308
15397 308
15398 308
15399 308
15400 308
15401 309
15402 309
15403 309
15404 309
15405 309
15406 309
15407 309
15408 309
15409 309
15410 309
15411 309
15412 309
15413 309
15414 309
15415 309
15416 309
15417 309
15418 309
15419 309
15420 309
15421 309
15422 309
15423 309
15424 309
15425 309
15426 309
15427 309
15428 309
15429 309
15430 309
15431 309
15432 309
15433 309
15434 309
15435 309
15436 309
15437 309
15438 309
15439 309
15440 309
15441 309
15442 309
15443 309
15444 309
15445 309
15446 309
15447 309
15448 309
15449 309
15450 309
15451 310
15452 310
15453 310
15454 310
15455 310
15456 310
15457 310
15458 310
15459 310
15460 310
15461 310
15462 310
15463 310
15464 310
15465 310
15466 310
15467 310
15468 310
15469 310
15470 310
15471 310
15472 310
15473 310
15474 310
15475 310
15476 310
15477 310
15478 310
15479 310
15480 310
15481 310
15482 310
15483 310
15484 310
15485 310
15486 310
15487 310
15488 310
15489 310
15490 310
15491 310
15492 310
15493 310
15494 310
15495 310
15496 310
15497 310
15498 310
15499 310
15500 310
15501 311
15502 311
15503 311
15504 311
15505 311
15506 311
15507 311
15508 311
15509 311
15510 311
15511 311
15512 311
15513 311
15514 311
15515 311
15516 311
15517 311
15518 311
15519 311
15520 311
15521 311
15522 311
15523 311
15524 311
15525 311
15526 311
15527 311
15528 311
15529 311
15530 311
15531 311
15532 311
15533 311
15534 311
15535 311
15536 311
15537 311
15538 311
15539 311
15540 311
15541 311
15542 311
15543 311
15544 311
15545 311
15546 311
15547 311
15548 311
15549 311
15550 311
15551 312
15552 312
15553 312
15554 312
15555 312
15556 312
15557 312
15558 312
15559 312
15560 312
15561 312
15562 312
15563 312
15564 312
15565 312
15566 312
15567 312
15568 312
15569 312
15570 312
15571 312
15572 312
15573 312
15574 312
15575 312
15576 312
15577 312
15578 312
15579 312
15580 312
15581 312
15582 312
15583 312
15584 312
15585 312
15586 312
15587 312
15588 312
15589 312
15590 312
15591 312
15592 312
15593 312
15594 312
15595 312
15596 312
15597 312
15598 312
15599 312
15600 312
15601 313
15602 313
15603 313
15604 313
15605 313
15606 313
15607 313
15608 313
15609 313
15610 313
15611 313
15612 313
15613 313
15614 313
15615 313
15616 313
15617 313
15618 313
15619 313
15620 313
15621 313
15622 313
15623 313
15624 313
15625 313
15626 313
15627 313
15628 313
15629 313
15630 313
15631 313
15632 313
15633 313
15634 313
15635 313
15636 313
15637 313
15638 313
15639 313
15640 313
15641 313
15642 313
15643 313
15644 313
15645 313
15646 313
15647 313
15648 313
15649 313
15650 313
15651 314
15652 314
15653 314
15654 314
15655 314
15656 314
15657 314
15658 314
15659 314
15660 314
15661 314
15662 314
15663 314
15664 314
15665 314
15666 314
15667 314
15668 314
15669 314
15670 314
15671 314
15672 314
15673 314
15674 314
15675 314
15676 314
15677 314
15678 314
15679 314
15680 314
15681 314
15682 314
15683 314
15684 314
15685 314
15686 314
15687 314
15688 314
15689 314
15690 314
15691 314
15692 314
15693 314
15694 314
15695 314
15696 314
15697 314
15698 314
15699 314
15700 314
15701 315
15702 315
15703 315
15704 315
15705 315
15706 315
15707 315
15708 315
15709 315
15710 315
15711 315
15712 315
15713 315
15714 315
15715 315
15716 315
15717 315
15718 315
15719 315
15720 315
15721 315
15722 315
15723 315
15724 315
15725 315
15726 315
15727 315
15728 315
15729 315
15730 315
15731 315
15732 315
15733 315
15734 315
15735 315
15736 315
15737 315
15738 315
15739 315
15740 315
15741 315
15742 315
15743 315
15744 315
15745 315
15746 315
15747 315
15748 315
15749 315
15750 315
15751 316
15752 316
15753 316
15754 316
15755 316
15756 316
15757 316
15758 316
15759 316
15760 316
15761 316
15762 316
15763 316
15764 316
15765 316
15766 316
15767 316
15768 316
15769 316
15770 316
15771 316
15772 316
15773 316
15774 316
15775 316
15776 316
15777 316
15778 316
15779 316
15780 316
15781 316
15782 316
15783 316
15784 316
15785 316
15786 316
15787 316
15788 316
15789 316
15790 316
15791 316
15792 316
15793 316
15794 316
15795 316
15796 316
15797 316
15798 316
15799 316
15800 316
15801 317
15802 317
15803 317
15804 317
15805 317
15806 317
15807 317
15808 317
15809 317
15810 317
15811 317
15812 317
15813 317
15814 317
15815 317
15816 317
15817 317
15818 317
15819 317
15820 317
15821 317
15822 317
15823 317
15824 317
15825 317
15826 317
15827 317
15828 317
15829 317
15830 317
15831 317
15832 317
15833 317
15834 317
15835 317
15836 317
15837 317
15838 317
15839 317
15840 317
15841 317
15842 317
15843 317
15844 317
15845 317
15846 317
15847 317
15848 317
15849 317
15850 317
15851 318
15852 318
15853 318
15854 318
15855 318
15856 318
15857 318
15858 318
15859 318
15860 318
15861 318
15862 318
15863 318
15864 318
15865 318
15866 318
15867 318
15868 318
15869 318
15870 318
15871 318
15872 318
15873 318
15874 318
15875 318
15876 318
15877 318
15878 318
15879 318
15880 318
15881 318
15882 318
15883 318
15884 318
15885 318
15886 318
15887 318
15888 318
15889 318
15890 318
15891 318
15892 318
15893 318
15894 318
15895 318
15896 318
15897 318
15898 318
15899 318
15900 318
15901 319
15902 319
15903 319
15904 319
15905 319
15906 319
15907 319
15908 319
15909 319
15910 319
15911 319
15912 319
15913 319
15914 319
15915 319
15916 319
15917 319
15918 319
15919 319
15920 319
15921 319
15922 319
15923 319
15924 319
15925 319
15926 319
15927 319
15928 319
15929 319
15930 319
15931 319
15932 319
15933 319
15934 319
15935 319
15936 319
15937 319
15938 319
15939 319
15940 319
15941 319
15942 319
15943 319
15944 319
15945 319
15946 319
15947 319
15948 319
15949 319
15950 319
15951 320
15952 320
15953 320
15954 320
15955 320
15956 320
15957 320
15958 320
15959 320
15960 320
15961 320
15962 320
15963 320
15964 320
15965 320
15966 320
15967 320
15968 320
15969 320
15970 320
15971 320
15972 320
15973 320
15974 320
15975 320
15976 320
15977 320
15978 320
15979 320
15980 320
15981 320
15982 320
15983 320
15984 320
15985 320
15986 320
15987 320
15988 320
15989 320
15990 320
15991 320
15992 320
15993 320
15994 320
15995 320
15996 320
15997 320
15998 320
15999 320
16000 320
16001 321
16002 321
16003 321
16004 321
16005 321
16006 321
16007 321
16008 321
16009 321
16010 321
16011 321
16012 321
16013 321
16014 321
16015 321
16016 321
16017 321
16018 321
16019 321
16020 321
16021 321
16022 321
16023 321
16024 321
16025 321
16026 321
16027 321
16028 321
16029 321
16030 321
16031 321
16032 321
16033 321
16034 321
16035 321
16036 321
16037 321
16038 321
16039 321
16040 321
16041 321
16042 321
16043 321
16044 321
16045 321
16046 321
16047 321
16048 321
16049 321
16050 321
16051 322
16052 322
16053 322
16054 322
16055 322
16056 322
16057 322
16058 322
16059 322
16060 322
16061 322
16062 322
16063 322
16064 322
16065 322
16066 322
16067 322
16068 322
16069 322
16070 322
16071 322
16072 322
16073 322
16074 322
16075 322
16076 322
16077 322
16078 322
16079 322
16080 322
16081 322
16082 322
16083 322
16084 322
16085 322
16086 322
16087 322
16088 322
16089 322
16090 322
16091 322
16092 322
16093 322
16094 322
16095 322
16096 322
16097 322
16098 322
16099 322
16100 322
16101 323
16102 323
16103 323
16104 323
16105 323
16106 323
16107 323
16108 323
16109 323
16110 323
16111 323
16112 323
16113 323
16114 323
16115 323
16116 323
16117 323
16118 323
16119 323
16120 323
16121 323
16122 323
16123 323
16124 323
16125 323
16126 323
16127 323
16128 323
16129 323
16130 323
16131 323
16132 323
16133 323
16134 323
16135 323
16136 323
16137 323
16138 323
16139 323
16140 323
16141 323
16142 323
16143 323
16144 323
16145 323
16146 323
16147 323
16148 323
16149 323
16150 323
16151 324
16152 324
16153 324
16154 324
16155 324
16156 324
16157 324
16158 324
16159 324
16160 324
16161 324
16162 324
16163 324
16164 324
16165 324
16166 324
16167 324
16168 324
16169 324
16170 324
16171 324
16172 324
16173 324
16174 324
16175 324
16176 324
16177 324
16178 324
16179 324
16180 324
16181 324
16182 324
16183 324
16184 324
16185 324
16186 324
16187 324
16188 324
16189 324
16190 324
16191 324
16192 324
16193 324
16194 324
16195 324
16196 324
16197 324
16198 324
16199 324
16200 324
16201 325
16202 325
16203 325
16204 325
16205 325
16206 325
16207 325
16208 325
16209 325
16210 325
16211 325
16212 325
16213 325
16214 325
16215 325
16216 325
16217 325
16218 325
16219 325
16220 325
16221 325
16222 325
16223 325
16224 325
16225 325
16226 325
16227 325
16228 325
16229 325
16230 325
16231 325
16232 325
16233 325
16234 325
16235 325
16236 325
16237 325
16238 325
16239 325
16240 325
16241 325
16242 325
16243 325
16244 325
16245 325
16246 325
16247 325
16248 325
16249 325
16250 325
16251 326
16252 326
16253 326
16254 326
16255 326
16256 326
16257 326
16258 326
16259 326
16260 326
16261 326
16262 326
16263 326
16264 326
16265 326
16266 326
16267 326
16268 326
16269 326
16270 326
16271 326
16272 326
16273 326
16274 326
16275 326
16276 326
16277 326
16278 326
16279 326
16280 326
16281 326
16282 326
16283 326
16284 326
16285 326
16286 326
16287 326
16288 326
16289 326
16290 326
16291 326
16292 326
16293 326
16294 326
16295 326
16296 326
16297 326
16298 326
16299 326
16300 326
16301 327
16302 327
16303 327
16304 327
16305 327
16306 327
16307 327
16308 327
16309 327
16310 327
16311 327
16312 327
16313 327
16314 327
16315 327
16316 327
16317 327
16318 327
16319 327
16320 327
16321 327
16322 327
16323 327
16324 327
16325 327
16326 327
16327 327
16328 327
16329 327
16330 327
16331 327
16332 327
16333 327
16334 327
16335 327
16336 327
16337 327
16338 327
16339 327
16340 327
16341 327
16342 327
16343 327
16344 327
16345 327
16346 327
16347 327
16348 327
16349 327
16350 327
16351 328
16352 328
16353 328
16354 328
16355 328
16356 328
16357 328
16358 328
16359 328
16360 328
16361 328
16362 328
16363 328
16364 328
16365 328
16366 328
16367 328
16368 328
16369 328
16370 328
16371 328
16372 328
16373 328
16374 328
16375 328
16376 328
16377 328
16378 328
16379 328
16380 328
16381 328
16382 328
16383 328
16384 328
16385 328
16386 328
16387 328
16388 328
16389 328
16390 328
16391 328
16392 328
16393 328
16394 328
16395 328
16396 328
16397 328
16398 328
16399 328
16400 328
16401 329
16402 329
16403 329
16404 329
16405 329
16406 329
16407 329
16408 329
16409 329
16410 329
16411 329
16412 329
16413 329
16414 329
16415 329
16416 329
16417 329
16418 329
16419 329
16420 329
16421 329
16422 329
16423 329
16424 329
16425 329
16426 329
16427 329
16428 329
16429 329
16430 329
16431 329
16432 329
16433 329
16434 329
16435 329
16436 329
16437 329
16438 329
16439 329
16440 329
16441 329
16442 329
16443 329
16444 329
16445 329
16446 329
16447 329
16448 329
16449 329
16450 329
16451 330
16452 330
16453 330
16454 330
16455 330
16456 330
16457 330
16458 330
16459 330
16460 330
16461 330
16462 330
16463 330
16464 330
16465 330
16466 330
16467 330
16468 330
16469 330
16470 330
16471 330
16472 330
16473 330
16474 330
16475 330
16476 330
16477 330
16478 330
16479 330
16480 330
16481 330
16482 330
16483 330
16484 330
16485 330
16486 330
16487 330
16488 330
16489 330
16490 330
16491 330
16492 330
16493 330
16494 330
16495 330
16496 330
16497 330
16498 330
16499 330
16500 330
16501 331
16502 331
16503 331
16504 331
16505 331
16506 331
16507 331
16508 331
16509 331
16510 331
16511 331
16512 331
16513 331
16514 331
16515 331
16516 331
16517 331
16518 331
16519 331
16520 331
16521 331
16522 331
16523 331
16524 331
16525 331
16526 331
16527 331
16528 331
16529 331
16530 331
16531 331
16532 331
16533 331
16534 331
16535 331
16536 331
16537 331
16538 331
16539 331
16540 331
16541 331
16542 331
16543 331
16544 331
16545 331
16546 331
16547 331
16548 331
16549 331
16550 331
16551 332
16552 332
16553 332
16554 332
16555 332
16556 332
16557 332
16558 332
16559 332
16560 332
16561 332
16562 332
16563 332
16564 332
16565 332
16566 332
16567 332
16568 332
16569 332
16570 332
16571 332
16572 332
16573 332
16574 332
16575 332
16576 332
16577 332
16578 332
16579 332
16580 332
16581 332
16582 332
16583 332
16584 332
16585 332
16586 332
16587 332
16588 332
16589 332
16590 332
16591 332
16592 332
16593 332
16594 332
16595 332
16596 332
16597 332
16598 332
16599 332
16600 332
16601 333
16602 333
16603 333
16604 333
16605 333
16606 333
16607 333
16608 333
16609 333
16610 333
16611 333
16612 333
16613 333
16614 333
16615 333
16616 333
16617 333
16618 333
16619 333
16620 333
16621 333
16622 333
16623 333
16624 333
16625 333
16626 333
16627 333
16628 333
16629 333
16630 333
16631 333
16632 333
16633 333
16634 333
16635 333
16636 333
16637 333
16638 333
16639 333
16640 333
16641 333
16642 333
16643 333
16644 333
16645 333
16646 333
16647 333
16648 333
16649 333
16650 333
16651 334
16652 334
16653 334
16654 334
16655 334
16656 334
16657 334
16658 334
16659 334
16660 334
16661 334
16662 334
16663 334
16664 334
16665 334
16666 334
16667 334
16668 334
16669 334
16670 334
16671 334
16672 334
16673 334
16674 334
16675 334
16676 334
16677 334
16678 334
16679 334
16680 334
16681 334
16682 334
16683 334
16684 334
16685 334
16686 334
16687 334
16688 334
16689 334
16690 334
16691 334
16692 334
16693 334
16694 334
16695 334
16696 334
16697 334
16698 334
16699 334
16700 334
16701 335
16702 335
16703 335
16704 335
16705 335
16706 335
16707 335
16708 335
16709 335
16710 335
16711 335
16712 335
16713 335
16714 335
16715 335
16716 335
16717 335
16718 335
16719 335
16720 335
16721 335
16722 335
16723 335
16724 335
16725 335
16726 335
16727 335
16728 335
16729 335
16730 335
16731 335
16732 335
16733 335
16734 335
16735 335
16736 335
16737 335
16738 335
16739 335
16740 335
16741 335
16742 335
16743 335
16744 335
16745 335
16746 335
16747 335
16748 335
16749 335
16750 335
16751 336
16752 336
16753 336
16754 336
16755 336
16756 336
16757 336
16758 336
16759 336
16760 336
16761 336
16762 336
16763 336
16764 336
16765 336
16766 336
16767 336
16768 336
16769 336
16770 336
16771 336
16772 336
16773 336
16774 336
16775 336
16776 336
16777 336
16778 336
16779 336
16780 336
16781 336
16782 336
16783 336
16784 336
16785 336
16786 336
16787 336
16788 336
16789 336
16790 336
16791 336
16792 336
16793 336
16794 336
16795 336
16796 336
16797 336
16798 336
16799 336
16800 336
16801 337
16802 337
16803 337
16804 337
16805 337
16806 337
16807 337
16808 337
16809 337
16810 337
16811 337
16812 337
16813 337
16814 337
16815 337
16816 337
16817 337
16818 337
16819 337
16820 337
16821 337
16822 337
16823 337
16824 337
16825 337
16826 337
16827 337
16828 337
16829 337
16830 337
16831 337
16832 337
16833 337
16834 337
16835 337
16836 337
16837 337
16838 337
16839 337
16840 337
16841 337
16842 337
16843 337
16844 337
16845 337
16846 337
16847 337
16848 337
16849 337
16850 337
16851 338
16852 338
16853 338
16854 338
16855 338
16856 338
16857 338
16858 338
16859 338
16860 338
16861 338
16862 338
16863 338
16864 338
16865 338
16866 338
16867 338
16868 338
16869 338
16870 338
16871 338
16872 338
16873 338
16874 338
16875 338
16876 338
16877 338
16878 338
16879 338
16880 338
16881 338
16882 338
16883 338
16884 338
16885 338
16886 338
16887 338
16888 338
16889 338
16890 338
16891 338
16892 338
16893 338
16894 338
16895 338
16896 338
16897 338
16898 338
16899 338
16900 338
16901 339
16902 339
16903 339
16904 339
16905 339
16906 339
16907 339
16908 339
16909 339
16910 339
16911 339
16912 339
16913 339
16914 339
16915 339
16916 339
16917 339
16918 339
16919 339
16920 339
16921 339
16922 339
16923 339
16924 339
16925 339
16926 339
16927 339
16928 339
16929 339
16930 339
16931 339
16932 339
16933 339
16934 339
16935 339
16936 339
16937 339
16938 339
16939 339
16940 339
16941 339
16942 339
16943 339
16944 339
16945 339
16946 339
16947 339
16948 339
16949 339
16950 339
16951 340
16952 340
16953 340
16954 340
16955 340
16956 340
16957 340
16958 340
16959 340
16960 340
16961 340
16962 340
16963 340
16964 340
16965 340
16966 340
16967 340
16968 340
16969 340
16970 340
16971 340
16972 340
16973 340
16974 340
16975 340
16976 340
16977 340
16978 340
16979 340
16980 340
16981 340
16982 340
16983 340
16984 340
16985 340
16986 340
16987 340
16988 340
16989 340
16990 340
16991 340
16992 340
16993 340
16994 340
16995 340
16996 340
16997 340
16998 340
16999 340
17000 340
17001 341
17002 341
17003 341
17004 341
17005 341
17006 341
17007 341
17008 341
17009 341
17010 341
17011 341
17012 341
17013 341
17014 341
17015 341
17016 341
17017 341
17018 341
17019 341
17020 341
17021 341
17022 341
17023 341
17024 341
17025 341
17026 341
17027 341
17028 341
17029 341
17030 341
17031 341
17032 341
17033 341
17034 341
17035 341
17036 341
17037 341
17038 341
17039 341
17040 341
17041 341
17042 341
17043 341
17044 341
17045 341
17046 341
17047 341
17048 341
17049 341
17050 341
17051 342
17052 342
17053 342
17054 342
17055 342
17056 342
17057 342
17058 342
17059 342
17060 342
17061 342
17062 342
17063 342
17064 342
17065 342
17066 342
17067 342
17068 342
17069 342
17070 342
17071 342
17072 342
17073 342
17074 342
17075 342
17076 342
17077 342
17078 342
17079 342
17080 342
17081 342
17082 342
17083 342
17084 342
17085 342
17086 342
17087 342
17088 342
17089 342
17090 342
17091 342
17092 342
17093 342
17094 342
17095 342
17096 342
17097 342
17098 342
17099 342
17100 342
17101 343
17102 343
17103 343
17104 343
17105 343
17106 343
17107 343
17108 343
17109 343
17110 343
17111 343
17112 343
17113 343
17114 343
17115 343
17116 343
17117 343
17118 343
17119 343
17120 343
17121 343
17122 343
17123 343
17124 343
17125 343
17126 343
17127 343
17128 343
17129 343
17130 343
17131 343
17132 343
17133 343
17134 343
17135 343
17136 343
17137 343
17138 343
17139 343
17140 343
17141 343
17142 343
17143 343
17144 343
17145 343
17146 343
17147 343
17148 343
17149 343
17150 343
17151 344
17152 344
17153 344
17154 344
17155 344
17156 344
17157 344
17158 344
17159 344
17160 344
17161 344
17162 344
17163 344
17164 344
17165 344
17166 344
17167 344
17168 344
17169 344
17170 344
17171 344
17172 344
17173 344
17174 344
17175 344
17176 344
17177 344
17178 344
17179 344
17180 344
17181 344
17182 344
17183 344
17184 344
17185 344
17186 344
17187 344
17188 344
17189 344
17190 344
17191 344
17192 344
17193 344
17194 344
17195 344
17196 344
17197 344
17198 344
17199 344
17200 344
17201 345
17202 345
17203 345
17204 345
17205 345
17206 345
17207 345
17208 345
17209 345
17210 345
17211 345
17212 345
17213 345
17214 345
17215 345
17216 345
17217 345
17218 345
17219 345
17220 345
17221 345
17222 345
17223 345
17224 345
17225 345
17226 345
17227 345
17228 345
17229 345
17230 345
17231 345
17232 345
17233 345
17234 345
17235 345
17236 345
17237 345
17238 345
17239 345
17240 345
17241 345
17242 345
17243 345
17244 345
17245 345
17246 345
17247 345
17248 345
17249 345
17250 345
17251 346
17252 346
17253 346
17254 346
17255 346
17256 346
17257 346
17258 346
17259 346
17260 346
17261 346
17262 346
17263 346
17264 346
17265 346
17266 346
17267 346
17268 346
17269 346
17270 346
17271 346
17272 346
17273 346
17274 346
17275 346
17276 346
17277 346
17278 346
17279 346
17280 346
17281 346
17282 346
17283 346
17284 346
17285 346
17286 346
17287 346
17288 346
17289 346
17290 346
17291 346
17292 346
17293 346
17294 346
17295 346
17296 346
17297 346
17298 346
17299 346
17300 346
17301 347
17302 347
17303 347
17304 347
17305 347
17306 347
17307 347
17308 347
17309 347
17310 347
17311 347
17312 347
17313 347
17314 347
17315 347
17316 347
17317 347
17318 347
17319 347
17320 347
17321 347
17322 347
17323 347
17324 347
17325 347
17326 347
17327 347
17328 347
17329 347
17330 347
17331 347
17332 347
17333 347
17334 347
17335 347
17336 347
17337 347
17338 347
17339 347
17340 347
17341 347
17342 347
17343 347
17344 347
17345 347
17346 347
17347 347
17348 347
17349 347
17350 347
17351 348
17352 348
17353 348
17354 348
17355 348
17356 348
17357 348
17358 348
17359 348
17360 348
17361 348
17362 348
17363 348
17364 348
17365 348
17366 348
17367 348
17368 348
17369 348
17370 348
17371 348
17372 348
17373 348
17374 348
17375 348
17376 348
17377 348
17378 348
17379 348
17380 348
17381 348
17382 348
17383 348
17384 348
17385 348
17386 348
17387 348
17388 348
17389 348
17390 348
17391 348
17392 348
17393 348
17394 348
17395 348
17396 348
17397 348
17398 348
17399 348
17400 348
17401 349
17402 349
17403 349
17404 349
17405 349
17406 349
17407 349
17408 349
17409 349
17410 349
17411 349
17412 349
17413 349
17414 349
17415 349
17416 349
17417 349
17418 349
17419 349
17420 349
17421 349
17422 349
17423 349
17424 349
17425 349
17426 349
17427 349
17428 349
17429 349
17430 349
17431 349
17432 349
17433 349
17434 349
17435 349
17436 349
17437 349
17438 349
17439 349
17440 349
17441 349
17442 349
17443 349
17444 349
17445 349
17446 349
17447 349
17448 349
17449 349
17450 349
17451 350
17452 350
17453 350
17454 350
17455 350
17456 350
17457 350
17458 350
17459 350
17460 350
17461 350
17462 350
17463 350
17464 350
17465 350
17466 350
17467 350
17468 350
17469 350
17470 350
17471 350
17472 350
17473 350
17474 350
17475 350
17476 350
17477 350
17478 350
17479 350
17480 350
17481 350
17482 350
17483 350
17484 350
17485 350
17486 350
17487 350
17488 350
17489 350
17490 350
17491 350
17492 350
17493 350
17494 350
17495 350
17496 350
17497 350
17498 350
17499 350
17500 350
17501 351
17502 351
17503 351
17504 351
17505 351
17506 351
17507 351
17508 351
17509 351
17510 351
17511 351
17512 351
17513 351
17514 351
17515 351
17516 351
17517 351
17518 351
17519 351
17520 351
17521 351
17522 351
17523 351
17524 351
17525 351
17526 351
17527 351
17528 351
17529 351
17530 351
17531 351
17532 351
17533 351
17534 351
17535 351
17536 351
17537 351
17538 351
17539 351
17540 351
17541 351
17542 351
17543 351
17544 351
17545 351
17546 351
17547 351
17548 351
17549 351
17550 351
17551 352
17552 352
17553 352
17554 352
17555 352
17556 352
17557 352
17558 352
17559 352
17560 352
17561 352
17562 352
17563 352
17564 352
17565 352
17566 352
17567 352
17568 352
17569 352
17570 352
17571 352
17572 352
17573 352
17574 352
17575 352
17576 352
17577 352
17578 352
17579 352
17580 352
17581 352
17582 352
17583 352
17584 352
17585 352
17586 352
17587 352
17588 352
17589 352
17590 352
17591 352
17592 352
17593 352
17594 352
17595 352
17596 352
17597 352
17598 352
17599 352
17600 352
17601 353
17602 353
17603 353
17604 353
17605 353
17606 353
17607 353
17608 353
17609 353
17610 353
17611 353
17612 353
17613 353
17614 353
17615 353
17616 353
17617 353
17618 353
17619 353
17620 353
17621 353
17622 353
17623 353
17624 353
17625 353
17626 353
17627 353
17628 353
17629 353
17630 353
17631 353
17632 353
17633 353
17634 353
17635 353
17636 353
17637 353
17638 353
17639 353
17640 353
17641 353
17642 353
17643 353
17644 353
17645 353
17646 353
17647 353
17648 353
17649 353
17650 353
17651 354
17652 354
17653 354
17654 354
17655 354
17656 354
17657 354
17658 354
17659 354
17660 354
17661 354
17662 354
17663 354
17664 354
17665 354
17666 354
17667 354
17668 354
17669 354
17670 354
17671 354
17672 354
17673 354
17674 354
17675 354
17676 354
17677 354
17678 354
17679 354
17680 354
17681 354
17682 354
17683 354
17684 354
17685 354
17686 354
17687 354
17688 354
17689 354
17690 354
17691 354
17692 354
17693 354
17694 354
17695 354
17696 354
17697 354
17698 354
17699 354
17700 354
17701 355
17702 355
17703 355
17704 355
17705 355
17706 355
17707 355
17708 355
17709 355
17710 355
17711 355
17712 355
17713 355
17714 355
17715 355
17716 355
17717 355
17718 355
17719 355
17720 355
17721 355
17722 355
17723 355
17724 355
17725 355
17726 355
17727 355
17728 355
17729 355
17730 355
17731 355
17732 355
17733 355
17734 355
17735 355
17736 355
17737 355
17738 355
17739 355
17740 355
17741 355
17742 355
17743 355
17744 355
17745 355
17746 355
17747 355
17748 355
17749 355
17750 355
17751 356
17752 356
17753 356
17754 356
17755 356
17756 356
17757 356
17758 356
17759 356
17760 356
17761 356
17762 356
17763 356
17764 356
17765 356
17766 356
17767 356
17768 356
17769 356
17770 356
17771 356
17772 356
17773 356
17774 356
17775 356
17776 356
17777 356
17778 356
17779 356
17780 356
17781 356
17782 356
17783 356
17784 356
17785 356
17786 356
17787 356
17788 356
17789 356
17790 356
17791 356
17792 356
17793 356
17794 356
17795 356
17796 356
17797 356
17798 356
17799 356
17800 356
17801 357
17802 357
17803 357
17804 357
17805 357
17806 357
17807 357
17808 357
17809 357
17810 357
17811 357
17812 357
17813 357
17814 357
17815 357
17816 357
17817 357
17818 357
17819 357
17820 357
17821 357
17822 357
17823 357
17824 357
17825 357
17826 357
17827 357
17828 357
17829 357
17830 357
17831 357
17832 357
17833 357
17834 357
17835 357
17836 357
17837 357
17838 357
17839 357
17840 357
17841 357
17842 357
17843 357
17844 357
17845 357
17846 357
17847 357
17848 357
17849 357
17850 357
17851 358
17852 358
17853 358
17854 358
17855 358
17856 358
17857 358
17858 358
17859 358
17860 358
17861 358
17862 358
17863 358
17864 358
17865 358
17866 358
17867 358
17868 358
17869 358
17870 358
17871 358
17872 358
17873 358
17874 358
17875 358
17876 358
17877 358
17878 358
17879 358
17880 358
17881 358
17882 358
17883 358
17884 358
17885 358
17886 358
17887 358
17888 358
17889 358
17890 358
17891 358
17892 358
17893 358
17894 358
17895 358
17896 358
17897 358
17898 358
17899 358
17900 358
17901 359
17902 359
17903 359
17904 359
17905 359
17906 359
17907 359
17908 359
17909 359
17910 359
17911 359
17912 359
17913 359
17914 359
17915 359
17916 359
17917 359
17918 359
17919 359
17920 359
17921 359
17922 359
17923 359
17924 359
17925 359
17926 359
17927 359
17928 359
17929 359
17930 359
17931 359
17932 359
17933 359
17934 359
17935 359
17936 359
17937 359
17938 359
17939 359
17940 359
17941 359
17942 359
17943 359
17944 359
17945 359
17946 359
17947 359
17948 359
17949 359
17950 359
17951 360
17952 360
17953 360
17954 360
17955 360
17956 360
17957 360
17958 360
17959 360
17960 360
17961 360
17962 360
17963 360
17964 360
17965 360
17966 360
17967 360
17968 360
17969 360
17970 360
17971 360
17972 360
17973 360
17974 360
17975 360
17976 360
17977 360
17978 360
17979 360
17980 360
17981 360
17982 360
17983 360
17984 360
17985 360
17986 360
17987 360
17988 360
17989 360
17990 360
17991 360
17992 360
17993 360
17994 360
17995 360
17996 360
17997 360
17998 360
17999 360
18000 360
18001 361
18002 361
18003 361
18004 361
18005 361
18006 361
18007 361
18008 361
18009 361
18010 361
18011 361
18012 361
18013 361
18014 361
18015 361
18016 361
18017 361
18018 361
18019 361
18020 361
18021 361
18022 361
18023 361
18024 361
18025 361
18026 361
18027 361
18028 361
18029 361
18030 361
18031 361
18032 361
18033 361
18034 361
18035 361
18036 361
18037 361
18038 361
18039 361
18040 361
18041 361
18042 361
18043 361
18044 361
18045 361
18046 361
18047 361
18048 361
18049 361
18050 361
18051 362
18052 362
18053 362
18054 362
18055 362
18056 362
18057 362
18058 362
18059 362
18060 362
18061 362
18062 362
18063 362
18064 362
18065 362
18066 362
18067 362
18068 362
18069 362
18070 362
18071 362
18072 362
18073 362
18074 362
18075 362
18076 362
18077 362
18078 362
18079 362
18080 362
18081 362
18082 362
18083 362
18084 362
18085 362
18086 362
18087 362
18088 362
18089 362
18090 362
18091 362
18092 362
18093 362
18094 362
18095 362
18096 362
18097 362
18098 362
18099 362
18100 362
18101 363
18102 363
18103 363
18104 363
18105 363
18106 363
18107 363
18108 363
18109 363
18110 363
18111 363
18112 363
18113 363
18114 363
18115 363
18116 363
18117 363
18118 363
18119 363
18120 363
18121 363
18122 363
18123 363
18124 363
18125 363
18126 363
18127 363
18128 363
18129 363
18130 363
18131 363
18132 363
18133 363
18134 363
18135 363
18136 363
18137 363
18138 363
18139 363
18140 363
18141 363
18142 363
18143 363
18144 363
18145 363
18146 363
18147 363
18148 363
18149 363
18150 363
18151 364
18152 364
18153 364
18154 364
18155 364
18156 364
18157 364
18158 364
18159 364
18160 364
18161 364
18162 364
18163 364
18164 364
18165 364
18166 364
18167 364
18168 364
18169 364
18170 364
18171 364
18172 364
18173 364
18174 364
18175 364
18176 364
18177 364
18178 364
18179 364
18180 364
18181 364
18182 364
18183 364
18184 364
18185 364
18186 364
18187 364
18188 364
18189 364
18190 364
18191 364
18192 364
18193 364
18194 364
18195 364
18196 364
18197 364
18198 364
18199 364
18200 364
18201 365
18202 365
18203 365
18204 365
18205 365
18206 365
18207 365
18208 365
18209 365
18210 365
18211 365
18212 365
18213 365
18214 365
18215 365
18216 365
18217 365
18218 365
18219 365
18220 365
18221 365
18222 365
18223 365
18224 365
18225 365
18226 365
18227 365
18228 365
18229 365
18230 365
18231 365
18232 365
18233 365
18234 365
18235 365
18236 365
18237 365
18238 365
18239 365
18240 365
18241 365
18242 365
18243 365
18244 365
18245 365
18246 365
18247 365
18248 365
18249 365
18250 365
18251 366
18252 366
18253 366
18254 366
18255 366
18256 366
18257 366
18258 366
18259 366
18260 366
18261 366
18262 366
18263 366
18264 366
18265 366
18266 366
18267 366
18268 366
18269 366
18270 366
18271 366
18272 366
18273 366
18274 366
18275 366
18276 366
18277 366
18278 366
18279 366
18280 366
18281 366
18282 366
18283 366
18284 366
18285 366
18286 366
18287 366
18288 366
18289 366
18290 366
18291 366
18292 366
18293 366
18294 366
18295 366
18296 366
18297 366
18298 366
18299 366
18300 366
18301 367
18302 367
18303 367
18304 367
18305 367
18306 367
18307 367
18308 367
18309 367
18310 367
18311 367
18312 367
18313 367
18314 367
18315 367
18316 367
18317 367
18318 367
18319 367
18320 367
18321 367
18322 367
18323 367
18324 367
18325 367
18326 367
18327 367
18328 367
18329 367
18330 367
18331 367
18332 367
18333 367
18334 367
18335 367
18336 367
18337 367
18338 367
18339 367
18340 367
18341 367
18342 367
18343 367
18344 367
18345 367
18346 367
18347 367
18348 367
18349 367
18350 367
18351 368
18352 368
18353 368
18354 368
18355 368
18356 368
18357 368
18358 368
18359 368
18360 368
18361 368
18362 368
18363 368
18364 368
18365 368
18366 368
18367 368
18368 368
18369 368
18370 368
18371 368
18372 368
18373 368
18374 368
18375 368
18376 368
18377 368
18378 368
18379 368
18380 368
18381 368
18382 368
18383 368
18384 368
18385 368
18386 368
18387 368
18388 368
18389 368
18390 368
18391 368
18392 368
18393 368
18394 368
18395 368
18396 368
18397 368
18398 368
18399 368
18400 368
18401 369
18402 369
18403 369
18404 369
18405 369
18406 369
18407 369
18408 369
18409 369
18410 369
18411 369
18412 369
18413 369
18414 369
18415 369
18416 369
18417 369
18418 369
18419 369
18420 369
18421 369
18422 369
18423 369
18424 369
18425 369
18426 369
18427 369
18428 369
18429 369
18430 369
18431 369
18432 369
18433 369
18434 369
18435 369
18436 369
18437 369
18438 369
18439 369
18440 369
18441 369
18442 369
18443 369
18444 369
18445 369
18446 369
18447 369
18448 369
18449 369
18450 369
18451 370
18452 370
18453 370
18454 370
18455 370
18456 370
18457 370
18458 370
18459 370
18460 370
18461 370
18462 370
18463 370
18464 370
18465 370
18466 370
18467 370
18468 370
18469 370
18470 370
18471 370
18472 370
18473 370
18474 370
18475 370
18476 370
18477 370
18478 370
18479 370
18480 370
18481 370
18482 370
18483 370
18484 370
18485 370
18486 370
18487 370
18488 370
18489 370
18490 370
18491 370
18492 370
18493 370
18494 370
18495 370
18496 370
18497 370
18498 370
18499 370
18500 370
18501 371
18502 371
18503 371
18504 371
18505 371
18506 371
18507 371
18508 371
18509 371
18510 371
18511 371
18512 371
18513 371
18514 371
18515 371
18516 371
18517 371
18518 371
18519 371
18520 371
18521 371
18522 371
18523 371
18524 371
18525 371
18526 371
18527 371
18528 371
18529 371
18530 371
18531 371
18532 371
18533 371
18534 371
18535 371
18536 371
18537 371
18538 371
18539 371
18540 371
18541 371
18542 371
18543 371
18544 371
18545 371
18546 371
18547 371
18548 371
18549 371
18550 371
18551 372
18552 372
18553 372
18554 372
18555 372
18556 372
18557 372
18558 372
18559 372
18560 372
18561 372
18562 372
18563 372
18564 372
18565 372
18566 372
18567 372
18568 372
18569 372
18570 372
18571 372
18572 372
18573 372
18574 372
18575 372
18576 372
18577 372
18578 372
18579 372
18580 372
18581 372
18582 372
18583 372
18584 372
18585 372
18586 372
18587 372
18588 372
18589 372
18590 372
18591 372
18592 372
18593 372
18594 372
18595 372
18596 372
18597 372
18598 372
18599 372
18600 372
18601 373
18602 373
18603 373
18604 373
18605 373
18606 373
18607 373
18608 373
18609 373
18610 373
18611 373
18612 373
18613 373
18614 373
18615 373
18616 373
18617 373
18618 373
18619 373
18620 373
18621 373
18622 373
18623 373
18624 373
18625 373
18626 373
18627 373
18628 373
18629 373
18630 373
18631 373
18632 373
18633 373
18634 373
18635 373
18636 373
18637 373
18638 373
18639 373
18640 373
18641 373
18642 373
18643 373
18644 373
18645 373
18646 373
18647 373
18648 373
18649 373
18650 373
18651 374
18652 374
18653 374
18654 374
18655 374
18656 374
18657 374
18658 374
18659 374
18660 374
18661 374
18662 374
18663 374
18664 374
18665 374
18666 374
18667 374
18668 374
18669 374
18670 374
18671 374
18672 374
18673 374
18674 374
18675 374
18676 374
18677 374
18678 374
18679 374
18680 374
18681 374
18682 374
18683 374
18684 374
18685 374
18686 374
18687 374
18688 374
18689 374
18690 374
18691 374
18692 374
18693 374
18694 374
18695 374
18696 374
18697 374
18698 374
18699 374
18700 374
18701 375
18702 375
18703 375
18704 375
18705 375
18706 375
18707 375
18708 375
18709 375
18710 375
18711 375
18712 375
18713 375
18714 375
18715 375
18716 375
18717 375
18718 375
18719 375
18720 375
18721 375
18722 375
18723 375
18724 375
18725 375
18726 375
18727 375
18728 375
18729 375
18730 375
18731 375
18732 375
18733 375
18734 375
18735 375
18736 375
18737 375
18738 375
18739 375
18740 375
18741 375
18742 375
18743 375
18744 375
18745 375
18746 375
18747 375
18748 375
18749 375
18750 375
18751 376
18752 376
18753 376
18754 376
18755 376
18756 376
18757 376
18758 376
18759 376
18760 376
18761 376
18762 376
18763 376
18764 376
18765 376
18766 376
18767 376
18768 376
18769 376
18770 376
18771 376
18772 376
18773 376
18774 376
18775 376
18776 376
18777 376
18778 376
18779 376
18780 376
18781 376
18782 376
18783 376
18784 376
18785 376
18786 376
18787 376
18788 376
18789 376
18790 376
18791 376
18792 376
18793 376
18794 376
18795 376
18796 376
18797 376
18798 376
18799 376
18800 376
18801 377
18802 377
18803 377
18804 377
18805 377
18806 377
18807 377
18808 377
18809 377
18810 377
18811 377
18812 377
18813 377
18814 377
18815 377
18816 377
18817 377
18818 377
18819 377
18820 377
18821 377
18822 377
18823 377
18824 377
18825 377
18826 377
18827 377
18828 377
18829 377
18830 377
18831 377
18832 377
18833 377
18834 377
18835 377
18836 377
18837 377
18838 377
18839 377
18840 377
18841 377
18842 377
18843 377
18844 377
18845 377
18846 377
18847 377
18848 377
18849 377
18850 377
18851 378
18852 378
18853 378
18854 378
18855 378
18856 378
18857 378
18858 378
18859 378
18860 378
18861 378
18862 378
18863 378
18864 378
18865 378
18866 378
18867 378
18868 378
18869 378
18870 378
18871 378
18872 378
18873 378
18874 378
18875 378
18876 378
18877 378
18878 378
18879 378
18880 378
18881 378
18882 378
18883 378
18884 378
18885 378
18886 378
18887 378
18888 378
18889 378
18890 378
18891 378
18892 378
18893 378
18894 378
18895 378
18896 378
18897 378
18898 378
18899 378
18900 378
18901 379
18902 379
18903 379
18904 379
18905 379
18906 379
18907 379
18908 379
18909 379
18910 379
18911 379
18912 379
18913 379
18914 379
18915 379
18916 379
18917 379
18918 379
18919 379
18920 379
18921 379
18922 379
18923 379
18924 379
18925 379
18926 379
18927 379
18928 379
18929 379
18930 379
18931 379
18932 379
18933 379
18934 379
18935 379
18936 379
18937 379
18938 379
18939 379
18940 379
18941 379
18942 379
18943 379
18944 379
18945 379
18946 379
18947 379
18948 379
18949 379
18950 379
18951 380
18952 380
18953 380
18954 380
18955 380
18956 380
18957 380
18958 380
18959 380
18960 380
18961 380
18962 380
18963 380
18964 380
18965 380
18966 380
18967 380
18968 380
18969 380
18970 380
18971 380
18972 380
18973 380
18974 380
18975 380
18976 380
18977 380
18978 380
18979 380
18980 380
18981 380
18982 380
18983 380
18984 380
18985 380
18986 380
18987 380
18988 380
18989 380
18990 380
18991 380
18992 380
18993 380
18994 380
18995 380
18996 380
18997 380
18998 380
18999 380
19000 380
19001 381
19002 381
19003 381
19004 381
19005 381
19006 381
19007 381
19008 381
19009 381
19010 381
19011 381
19012 381
19013 381
19014 381
19015 381
19016 381
19017 381
19018 381
19019 381
19020 381
19021 381
19022 381
19023 381
19024 381
19025 381
19026 381
19027 381
19028 381
19029 381
19030 381
19031 381
19032 381
19033 381
19034 381
19035 381
19036 381
19037 381
19038 381
19039 381
19040 381
19041 381
19042 381
19043 381
19044 381
19045 381
19046 381
19047 381
19048 381
19049 381
19050 381
19051 382
19052 382
19053 382
19054 382
19055 382
19056 382
19057 382
19058 382
19059 382
19060 382
19061 382
19062 382
19063 382
19064 382
19065 382
19066 382
19067 382
19068 382
19069 382
19070 382
19071 382
19072 382
19073 382
19074 382
19075 382
19076 382
19077 382
19078 382
19079 382
19080 382
19081 382
19082 382
19083 382
19084 382
19085 382
19086 382
19087 382
19088 382
19089 382
19090 382
19091 382
19092 382
19093 382
19094 382
19095 382
19096 382
19097 382
19098 382
19099 382
19100 382
19101 383
19102 383
19103 383
19104 383
19105 383
19106 383
19107 383
19108 383
19109 383
19110 383
19111 383
19112 383
19113 383
19114 383
19115 383
19116 383
19117 383
19118 383
19119 383
19120 383
19121 383
19122 383
19123 383
19124 383
19125 383
19126 383
19127 383
19128 383
19129 383
19130 383
19131 383
19132 383
19133 383
19134 383
19135 383
19136 383
19137 383
19138 383
19139 383
19140 383
19141 383
19142 383
19143 383
19144 383
19145 383
19146 383
19147 383
19148 383
19149 383
19150 383
19151 384
19152 384
19153 384
19154 384
19155 384
19156 384
19157 384
19158 384
19159 384
19160 384
19161 384
19162 384
19163 384
19164 384
19165 384
19166 384
19167 384
19168 384
19169 384
19170 384
19171 384
19172 384
19173 384
19174 384
19175 384
19176 384
19177 384
19178 384
19179 384
19180 384
19181 384
19182 384
19183 384
19184 384
19185 384
19186 384
19187 384
19188 384
19189 384
19190 384
19191 384
19192 384
19193 384
19194 384
19195 384
19196 384
19197 384
19198 384
19199 384
19200 384
19201 385
19202 385
19203 385
19204 385
19205 385
19206 385
19207 385
19208 385
19209 385
19210 385
19211 385
19212 385
19213 385
19214 385
19215 385
19216 385
19217 385
19218 385
19219 385
19220 385
19221 385
19222 385
19223 385
19224 385
19225 385
19226 385
19227 385
19228 385
19229 385
19230 385
19231 385
19232 385
19233 385
19234 385
19235 385
19236 385
19237 385
19238 385
19239 385
19240 385
19241 385
19242 385
19243 385
19244 385
19245 385
19246 385
19247 385
19248 385
19249 385
19250 385
19251 386
19252 386
19253 386
19254 386
19255 386
19256 386
19257 386
19258 386
19259 386
19260 386
19261 386
19262 386
19263 386
19264 386
19265 386
19266 386
19267 386
19268 386
19269 386
19270 386
19271 386
19272 386
19273 386
19274 386
19275 386
19276 386
19277 386
19278 386
19279 386
19280 386
19281 386
19282 386
19283 386
19284 386
19285 386
19286 386
19287 386
19288 386
19289 386
19290 386
19291 386
19292 386
19293 386
19294 386
19295 386
19296 386
19297 386
19298 386
19299 386
19300 386
19301 387
19302 387
19303 387
19304 387
19305 387
19306 387
19307 387
19308 387
19309 387
19310 387
19311 387
19312 387
19313 387
19314 387
19315 387
19316 387
19317 387
19318 387
19319 387
19320 387
19321 387
19322 387
19323 387
19324 387
19325 387
19326 387
19327 387
19328 387
19329 387
19330 387
19331 387
19332 387
19333 387
19334 387
19335 387
19336 387
19337 387
19338 387
19339 387
19340 387
19341 387
19342 387
19343 387
19344 387
19345 387
19346 387
19347 387
19348 387
19349 387
19350 387
19351 388
19352 388
19353 388
19354 388
19355 388
19356 388
19357 388
19358 388
19359 388
19360 388
19361 388
19362 388
19363 388
19364 388
19365 388
19366 388
19367 388
19368 388
19369 388
19370 388
19371 388
19372 388
19373 388
19374 388
19375 388
19376 388
19377 388
19378 388
19379 388
19380 388
19381 388
19382 388
19383 388
19384 388
19385 388
19386 388
19387 388
19388 388
19389 388
19390 388
19391 388
19392 388
19393 388
19394 388
19395 388
19396 388
19397 388
19398 388
19399 388
19400 388
19401 389
19402 389
19403 389
19404 389
19405 389
19406 389
19407 389
19408 389
19409 389
19410 389
19411 389
19412 389
19413 389
19414 389
19415 389
19416 389
19417 389
19418 389
19419 389
19420 389
19421 389
19422 389
19423 389
19424 389
19425 389
19426 389
19427 389
19428 389
19429 389
19430 389
19431 389
19432 389
19433 389
19434 389
19435 389
19436 389
19437 389
19438 389
19439 389
19440 389
19441 389
19442 389
19443 389
19444 389
19445 389
19446 389
19447 389
19448 389
19449 389
19450 389
19451 390
19452 390
19453 390
19454 390
19455 390
19456 390
19457 390
19458 390
19459 390
19460 390
19461 390
19462 390
19463 390
19464 390
19465 390
19466 390
19467 390
19468 390
19469 390
19470 390
19471 390
19472 390
19473 390
19474 390
19475 390
19476 390
19477 390
19478 390
19479 390
19480 390
19481 390
19482 390
19483 390
19484 390
19485 390
19486 390
19487 390
19488 390
19489 390
19490 390
19491 390
19492 390
19493 390
19494 390
19495 390
19496 390
19497 390
19498 390
19499 390
19500 390
19501 391
19502 391
19503 391
19504 391
19505 391
19506 391
19507 391
19508 391
19509 391
19510 391
19511 391
19512 391
19513 391
19514 391
19515 391
19516 391
19517 391
19518 391
19519 391
19520 391
19521 391
19522 391
19523 391
19524 391
19525 391
19526 391
19527 391
19528 391
19529 391
19530 391
19531 391
19532 391
19533 391
19534 391
19535 391
19536 391
19537 391
19538 391
19539 391
19540 391
19541 391
19542 391
19543 391
19544 391
19545 391
19546 391
19547 391
19548 391
19549 391
19550 391
19551 392
19552 392
19553 392
19554 392
19555 392
19556 392
19557 392
19558 392
19559 392
19560 392
19561 392
19562 392
19563 392
19564 392
19565 392
19566 392
19567 392
19568 392
19569 392
19570 392
19571 392
19572 392
19573 392
19574 392
19575 392
19576 392
19577 392
19578 392
19579 392
19580 392
19581 392
19582 392
19583 392
19584 392
19585 392
19586 392
19587 392
19588 392
19589 392
19590 392
19591 392
19592 392
19593 392
19594 392
19595 392
19596 392
19597 392
19598 392
19599 392
19600 392
19601 393
19602 393
19603 393
19604 393
19605 393
19606 393
19607 393
19608 393
19609 393
19610 393
19611 393
19612 393
19613 393
19614 393
19615 393
19616 393
19617 393
19618 393
19619 393
19620 393
19621 393
19622 393
19623 393
19624 393
19625 393
19626 393
19627 393
19628 393
19629 393
19630 393
19631 393
19632 393
19633 393
19634 393
19635 393
19636 393
19637 393
19638 393
19639 393
19640 393
19641 393
19642 393
19643 393
19644 393
19645 393
19646 393
19647 393
19648 393
19649 393
19650 393
19651 394
19652 394
19653 394
19654 394
19655 394
19656 394
19657 394
19658 394
19659 394
19660 394
19661 394
19662 394
19663 394
19664 394
19665 394
19666 394
19667 394
19668 394
19669 394
19670 394
19671 394
19672 394
19673 394
19674 394
19675 394
19676 394
19677 394
19678 394
19679 394
19680 394
19681 394
19682 394
19683 394
19684 394
19685 394
19686 394
19687 394
19688 394
19689 394
19690 394
19691 394
19692 394
19693 394
19694 394
19695 394
19696 394
19697 394
19698 394
19699 394
19700 394
19701 395
19702 395
19703 395
19704 395
19705 395
19706 395
19707 395
19708 395
19709 395
19710 395
19711 395
19712 395
19713 395
19714 395
19715 395
19716 395
19717 395
19718 395
19719 395
19720 395
19721 395
19722 395
19723 395
19724 395
19725 395
19726 395
19727 395
19728 395
19729 395
19730 395
19731 395
19732 395
19733 395
19734 395
19735 395
19736 395
19737 395
19738 395
19739 395
19740 395
19741 395
19742 395
19743 395
19744 395
19745 395
19746 395
19747 395
19748 395
19749 395
19750 395
19751 396
19752 396
19753 396
19754 396
19755 396
19756 396
19757 396
19758 396
19759 396
19760 396
19761 396
19762 396
19763 396
19764 396
19765 396
19766 396
19767 396
19768 396
19769 396
19770 396
19771 396
19772 396
19773 396
19774 396
19775 396
19776 396
19777 396
19778 396
19779 396
19780 396
19781 396
19782 396
19783 396
19784 396
19785 396
19786 396
19787 396
19788 396
19789 396
19790 396
19791 396
19792 396
19793 396
19794 396
19795 396
19796 396
19797 396
19798 396
19799 396
19800 396
19801 397
19802 397
19803 397
19804 397
19805 397
19806 397
19807 397
19808 397
19809 397
19810 397
19811 397
19812 397
19813 397
19814 397
19815 397
19816 397
19817 397
19818 397
19819 397
19820 397
19821 397
19822 397
19823 397
19824 397
19825 397
19826 397
19827 397
19828 397
19829 397
19830 397
19831 397
19832 397
19833 397
19834 397
19835 397
19836 397
19837 397
19838 397
19839 397
19840 397
19841 397
19842 397
19843 397
19844 397
19845 397
19846 397
19847 397
19848 397
19849 397
19850 397
19851 398
19852 398
19853 398
19854 398
19855 398
19856 398
19857 398
19858 398
19859 398
19860 398
19861 398
19862 398
19863 398
19864 398
19865 398
19866 398
19867 398
19868 398
19869 398
19870 398
19871 398
19872 398
19873 398
19874 398
19875 398
19876 398
19877 398
19878 398
19879 398
19880 398
19881 398
19882 398
19883 398
19884 398
19885 398
19886 398
19887 398
19888 398
19889 398
19890 398
19891 398
19892 398
19893 398
19894 398
19895 398
19896 398
19897 398
19898 398
19899 398
19900 398
19901 399
19902 399
19903 399
19904 399
19905 399
19906 399
19907 399
19908 399
19909 399
19910 399
19911 399
19912 399
19913 399
19914 399
19915 399
19916 399
19917 399
19918 399
19919 399
19920 399
19921 399
19922 399
19923 399
19924 399
19925 399
19926 399
19927 399
19928 399
19929 399
19930 399
19931 399
19932 399
19933 399
19934 399
19935 399
19936 399
19937 399
19938 399
19939 399
19940 399
19941 399
19942 399
19943 399
19944 399
19945 399
19946 399
19947 399
19948 399
19949 399
19950 399
19951 400
19952 400
19953 400
19954 400
19955 400
19956 400
19957 400
19958 400
19959 400
19960 400
19961 400
19962 400
19963 400
19964 400
19965 400
19966 400
19967 400
19968 400
19969 400
19970 400
19971 400
19972 400
19973 400
19974 400
19975 400
19976 400
19977 400
19978 400
19979 400
19980 400
19981 400
19982 400
19983 400
19984 400
19985 400
19986 400
19987 400
19988 400
19989 400
19990 400
19991 400
19992 400
19993 400
19994 400
19995 400
19996 400
19997 400
19998 400
19999 400
20000 400
20001 401
20002 401
20003 401
20004 401
20005 401
20006 401
20007 401
20008 401
20009 401
20010 401
20011 401
20012 401
20013 401
20014 401
20015 401
20016 401
20017 401
20018 401
20019 401
20020 401
20021 401
20022 401
20023 401
20024 401
20025 401
20026 401
20027 401
20028 401
20029 401
20030 401
20031 401
20032 401
20033 401
20034 401
20035 401
20036 401
20037 401
20038 401
20039 401
20040 401
20041 401
20042 401
20043 401
20044 401
20045 401
20046 401
20047 401
20048 401
20049 401
20050 401
20051 402
20052 402
20053 402
20054 402
20055 402
20056 402
20057 402
20058 402
20059 402
20060 402
20061 402
20062 402
20063 402
20064 402
20065 402
20066 402
20067 402
20068 402
20069 402
20070 402
20071 402
20072 402
20073 402
20074 402
20075 402
20076 402
20077 402
20078 402
20079 402
20080 402
20081 402
20082 402
20083 402
20084 402
20085 402
20086 402
20087 402
20088 402
20089 402
20090 402
20091 402
20092 402
20093 402
20094 402
20095 402
20096 402
20097 402
20098 402
20099 402
20100 402
20101 403
20102 403
20103 403
20104 403
20105 403
20106 403
20107 403
20108 403
20109 403
20110 403
20111 403
20112 403
20113 403
20114 403
20115 403
20116 403
20117 403
20118 403
20119 403
20120 403
20121 403
20122 403
20123 403
20124 403
20125 403
20126 403
20127 403
20128 403
20129 403
20130 403
20131 403
20132 403
20133 403
20134 403
20135 403
20136 403
20137 403
20138 403
20139 403
20140 403
20141 403
20142 403
20143 403
20144 403
20145 403
20146 403
20147 403
20148 403
20149 403
20150 403
20151 404
20152 404
20153 404
20154 404
20155 404
20156 404
20157 404
20158 404
20159 404
20160 404
20161 404
20162 404
20163 404
20164 404
20165 404
20166 404
20167 404
20168 404
20169 404
20170 404
20171 404
20172 404
20173 404
20174 404
20175 404
20176 404
20177 404
20178 404
20179 404
20180 404
20181 404
20182 404
20183 404
20184 404
20185 404
20186 404
20187 404
20188 404
20189 404
20190 404
20191 404
20192 404
20193 404
20194 404
20195 404
20196 404
20197 404
20198 404
20199 404
20200 404
20201 405
20202 405
20203 405
20204 405
20205 405
20206 405
20207 405
20208 405
20209 405
20210 405
20211 405
20212 405
20213 405
20214 405
20215 405
20216 405
20217 405
20218 405
20219 405
20220 405
20221 405
20222 405
20223 405
20224 405
20225 405
20226 405
20227 405
20228 405
20229 405
20230 405
20231 405
20232 405
20233 405
20234 405
20235 405
20236 405
20237 405
20238 405
20239 405
20240 405
20241 405
20242 405
20243 405
20244 405
20245 405
20246 405
20247 405
20248 405
20249 405
20250 405
20251 406
20252 406
20253 406
20254 406
20255 406
20256 406
20257 406
20258 406
20259 406
20260 406
20261 406
20262 406
20263 406
20264 406
20265 406
20266 406
20267 406
20268 406
20269 406
20270 406
20271 406
20272 406
20273 406
20274 406
20275 406
20276 406
20277 406
20278 406
20279 406
20280 406
20281 406
20282 406
20283 406
20284 406
20285 406
20286 406
20287 406
20288 406
20289 406
20290 406
20291 406
20292 406
20293 406
20294 406
20295 406
20296 406
20297 406
20298 406
20299 406
20300 406
20301 407
20302 407
20303 407
20304 407
20305 407
20306 407
20307 407
20308 407
20309 407
20310 407
20311 407
20312 407
20313 407
20314 407
20315 407
20316 407
20317 407
20318 407
20319 407
20320 407
20321 407
20322 407
20323 407
20324 407
20325 407
20326 407
20327 407
20328 407
20329 407
20330 407
20331 407
20332 407
20333 407
20334 407
20335 407
20336 407
20337 407
20338 407
20339 407
20340 407
20341 407
20342 407
20343 407
20344 407
20345 407
20346 407
20347 407
20348 407
20349 407
20350 407
20351 408
20352 408
20353 408
20354 408
20355 408
20356 408
20357 408
20358 408
20359 408
20360 408
20361 408
20362 408
20363 408
20364 408
20365 408
20366 408
20367 408
20368 408
20369 408
20370 408
20371 408
20372 408
20373 408
20374 408
20375 408
20376 408
20377 408
20378 408
20379 408
20380 408
20381 408
20382 408
20383 408
20384 408
20385 408
20386 408
20387 408
20388 408
20389 408
20390 408
20391 408
20392 408
20393 408
20394 408
20395 408
20396 408
20397 408
20398 408
20399 408
20400 408
20401 409
20402 409
20403 409
20404 409
20405 409
20406 409
20407 409
20408 409
20409 409
20410 409
20411 409
20412 409
20413 409
20414 409
20415 409
20416 409
20417 409
20418 409
20419 409
20420 409
20421 409
20422 409
20423 409
20424 409
20425 409
20426 409
20427 409
20428 409
20429 409
20430 409
20431 409
20432 409
20433 409
20434 409
20435 409
20436 409
20437 409
20438 409
20439 409
20440 409
20441 409
20442 409
20443 409
20444 409
20445 409
20446 409
20447 409
20448 409
20449 409
20450 409
20451 410
20452 410
20453 410
20454 410
20455 410
20456 410
20457 410
20458 410
20459 410
20460 410
20461 410
20462 410
20463 410
20464 410
20465 410
20466 410
20467 410
20468 410
20469 410
20470 410
20471 410
20472 410
20473 410
20474 410
20475 410
20476 410
20477 410
20478 410
20479 410
20480 410
20481 410
20482 410
20483 410
20484 410
20485 410
20486 410
20487 410
20488 410
20489 410
20490 410
20491 410
20492 410
20493 410
20494 410
20495 410
20496 410
20497 410
20498 410
20499 410
20500 410
20501 411
20502 411
20503 411
20504 411
20505 411
20506 411
20507 411
20508 411
20509 411
20510 411
20511 411
20512 411
20513 411
20514 411
20515 411
20516 411
20517 411
20518 411
20519 411
20520 411
20521 411
20522 411
20523 411
20524 411
20525 411
20526 411
20527 411
20528 411
20529 411
20530 411
20531 411
20532 411
20533 411
20534 411
20535 411
20536 411
20537 411
20538 411
20539 411
20540 411
20541 411
20542 411
20543 411
20544 411
20545 411
20546 411
20547 411
20548 411
20549 411
20550 411
20551 412
20552 412
20553 412
20554 412
20555 412
20556 412
20557 412
20558 412
20559 412
20560 412
20561 412
20562 412
20563 412
20564 412
20565 412
20566 412
20567 412
20568 412
20569 412
20570 412
20571 412
20572 412
20573 412
20574 412
20575 412
20576 412
20577 412
20578 412
20579 412
20580 412
20581 412
20582 412
20583 412
20584 412
20585 412
20586 412
20587 412
20588 412
20589 412
20590 412
20591 412
20592 412
20593 412
20594 412
20595 412
20596 412
20597 412
20598 412
20599 412
20600 412
20601 413
20602 413
20603 413
20604 413
20605 413
20606 413
20607 413
20608 413
20609 413
20610 413
20611 413
20612 413
20613 413
20614 413
20615 413
20616 413
20617 413
20618 413
20619 413
20620 413
20621 413
20622 413
20623 413
20624 413
20625 413
20626 413
20627 413
20628 413
20629 413
20630 413
20631 413
20632 413
20633 413
20634 413
20635 413
20636 413
20637 413
20638 413
20639 413
20640 413
20641 413
20642 413
20643 413
20644 413
20645 413
20646 413
20647 413
20648 413
20649 413
20650 413
20651 414
20652 414
20653 414
20654 414
20655 414
20656 414
20657 414
20658 414
20659 414
20660 414
20661 414
20662 414
20663 414
20664 414
20665 414
20666 414
20667 414
20668 414
20669 414
20670 414
20671 414
20672 414
20673 414
20674 414
20675 414
20676 414
20677 414
20678 414
20679 414
20680 414
20681 414
20682 414
20683 414
20684 414
20685 414
20686 414
20687 414
20688 414
20689 414
20690 414
20691 414
20692 414
20693 414
20694 414
20695 414
20696 414
20697 414
20698 414
20699 414
20700 414
20701 415
20702 415
20703 415
20704 415
20705 415
20706 415
20707 415
20708 415
20709 415
20710 415
20711 415
20712 415
20713 415
20714 415
20715 415
20716 415
20717 415
20718 415
20719 415
20720 415
20721 415
20722 415
20723 415
20724 415
20725 415
20726 415
20727 415
20728 415
20729 415
20730 415
20731 415
20732 415
20733 415
20734 415
20735 415
20736 415
20737 415
20738 415
20739 415
20740 415
20741 415
20742 415
20743 415
20744 415
20745 415
20746 415
20747 415
20748 415
20749 415
20750 415
20751 416
20752 416
20753 416
20754 416
20755 416
20756 416
20757 416
20758 416
20759 416
20760 416
20761 416
20762 416
20763 416
20764 416
20765 416
20766 416
20767 416
20768 416
20769 416
20770 416
20771 416
20772 416
20773 416
20774 416
20775 416
20776 416
20777 416
20778 416
20779 416
20780 416
20781 416
20782 416
20783 416
20784 416
20785 416
20786 416
20787 416
20788 416
20789 416
20790 416
20791 416
20792 416
20793 416
20794 416
20795 416
20796 416
20797 416
20798 416
20799 416
20800 416
20801 417
20802 417
20803 417
20804 417
20805 417
20806 417
20807 417
20808 417
20809 417
20810 417
20811 417
20812 417
20813 417
20814 417
20815 417
20816 417
20817 417
20818 417
20819 417
20820 417
20821 417
20822 417
20823 417
20824 417
20825 417
20826 417
20827 417
20828 417
20829 417
20830 417
20831 417
20832 417
20833 417
20834 417
20835 417
20836 417
20837 417
20838 417
20839 417
20840 417
20841 417
20842 417
20843 417
20844 417
20845 417
20846 417
20847 417
20848 417
20849 417
20850 417
20851 418
20852 418
20853 418
20854 418
20855 418
20856 418
20857 418
20858 418
20859 418
20860 418
20861 418
20862 418
20863 418
20864 418
20865 418
20866 418
20867 418
20868 418
20869 418
20870 418
20871 418
20872 418
20873 418
20874 418
20875 418
20876 418
20877 418
20878 418
20879 418
20880 418
20881 418
20882 418
20883 418
20884 418
20885 418
20886 418
20887 418
20888 418
20889 418
20890 418
20891 418
20892 418
20893 418
20894 418
20895 418
20896 418
20897 418
20898 418
20899 418
20900 418
20901 419
20902 419
20903 419
20904 419
20905 419
20906 419
20907 419
20908 419
20909 419
20910 419
20911 419
20912 419
20913 419
20914 419
20915 419
20916 419
20917 419
20918 419
20919 419
20920 419
20921 419
20922 419
20923 419
20924 419
20925 419
20926 419
20927 419
20928 419
20929 419
20930 419
20931 419
20932 419
20933 419
20934 419
20935 419
20936 419
20937 419
20938 419
20939 419
20940 419
20941 419
20942 419
20943 419
20944 419
20945 419
20946 419
20947 419
20948 419
20949 419
20950 419
20951 420
20952 420
20953 420
20954 420
20955 420
20956 420
20957 420
20958 420
20959 420
20960 420
20961 420
20962 420
20963 420
20964 420
20965 420
20966 420
20967 420
20968 420
20969 420
20970 420
20971 420
20972 420
20973 420
20974 420
20975 420
20976 420
20977 420
20978 420
20979 420
20980 420
20981 420
20982 420
20983 420
20984 420
20985 420
20986 420
20987 420
20988 420
20989 420
20990 420
20991 420
20992 420
20993 420
20994 420
20995 420
20996 420
20997 420
20998 420
20999 420
21000 420
21001 421
21002 421
21003 421
21004 421
21005 421
21006 421
21007 421
21008 421
21009 421
21010 421
21011 421
21012 421
21013 421
21014 421
21015 421
21016 421
21017 421
21018 421
21019 421
21020 421
21021 421
21022 421
21023 421
21024 421
21025 421
21026 421
21027 421
21028 421
21029 421
21030 421
21031 421
21032 421
21033 421
21034 421
21035 421
21036 421
21037 421
21038 421
21039 421
21040 421
21041 421
21042 421
21043 421
21044 421
21045 421
21046 421
21047 421
21048 421
21049 421
21050 421
21051 422
21052 422
21053 422
21054 422
21055 422
21056 422
21057 422
21058 422
21059 422
21060 422
21061 422
21062 422
21063 422
21064 422
21065 422
21066 422
21067 422
21068 422
21069 422
21070 422
21071 422
21072 422
21073 422
21074 422
21075 422
21076 422
21077 422
21078 422
21079 422
21080 422
21081 422
21082 422
21083 422
21084 422
21085 422
21086 422
21087 422
21088 422
21089 422
21090 422
21091 422
21092 422
21093 422
21094 422
21095 422
21096 422
21097 422
21098 422
21099 422
21100 422
21101 423
21102 423
21103 423
21104 423
21105 423
21106 423
21107 423
21108 423
21109 423
21110 423
21111 423
21112 423
21113 423
21114 423
21115 423
21116 423
21117 423
21118 423
21119 423
21120 423
21121 423
21122 423
21123 423
21124 423
21125 423
21126 423
21127 423
21128 423
21129 423
21130 423
21131 423
21132 423
21133 423
21134 423
21135 423
21136 423
21137 423
21138 423
21139 423
21140 423
21141 423
21142 423
21143 423
21144 423
21145 423
21146 423
21147 423
21148 423
21149 423
21150 423
21151 424
21152 424
21153 424
21154 424
21155 424
21156 424
21157 424
21158 424
21159 424
21160 424
21161 424
21162 424
21163 424
21164 424
21165 424
21166 424
21167 424
21168 424
21169 424
21170 424
21171 424
21172 424
21173 424
21174 424
21175 424
21176 424
21177 424
21178 424
21179 424
21180 424
21181 424
21182 424
21183 424
21184 424
21185 424
21186 424
21187 424
21188 424
21189 424
21190 424
21191 424
21192 424
21193 424
21194 424
21195 424
21196 424
21197 424
21198 424
21199 424
21200 424
21201 425
21202 425
21203 425
21204 425
21205 425
21206 425
21207 425
21208 425
21209 425
21210 425
21211 425
21212 425
21213 425
21214 425
21215 425
21216 425
21217 425
21218 425
21219 425
21220 425
21221 425
21222 425
21223 425
21224 425
21225 425
21226 425
21227 425
21228 425
21229 425
21230 425
21231 425
21232 425
21233 425
21234 425
21235 425
21236 425
21237 425
21238 425
21239 425
21240 425
21241 425
21242 425
21243 425
21244 425
21245 425
21246 425
21247 425
21248 425
21249 425
21250 425
21251 426
21252 426
21253 426
21254 426
21255 426
21256 426
21257 426
21258 426
21259 426
21260 426
21261 426
21262 426
21263 426
21264 426
21265 426
21266 426
21267 426
21268 426
21269 426
21270 426
21271 426
21272 426
21273 426
21274 426
21275 426
21276 426
21277 426
21278 426
21279 426
21280 426
21281 426
21282 426
21283 426
21284 426
21285 426
21286 426
21287 426
21288 426
21289 426
21290 426
21291 426
21292 426
21293 426
21294 426
21295 426
21296 426
21297 426
21298 426
21299 426
21300 426
21301 427
21302 427
21303 427
21304 427
21305 427
21306 427
21307 427
21308 427
21309 427
21310 427
21311 427
21312 427
21313 427
21314 427
21315 427
21316 427
21317 427
21318 427
21319 427
21320 427
21321 427
21322 427
21323 427
21324 427
21325 427
21326 427
21327 427
21328 427
21329 427
21330 427
21331 427
21332 427
21333 427
21334 427
21335 427
21336 427
21337 427
21338 427
21339 427
21340 427
21341 427
21342 427
21343 427
21344 427
21345 427
21346 427
21347 427
21348 427
21349 427
21350 427
21351 428
21352 428
21353 428
21354 428
21355 428
21356 428
21357 428
21358 428
21359 428
21360 428
21361 428
21362 428
21363 428
21364 428
21365 428
21366 428
21367 428
21368 428
21369 428
21370 428
21371 428
21372 428
21373 428
21374 428
21375 428
21376 428
21377 428
21378 428
21379 428
21380 428
21381 428
21382 428
21383 428
21384 428
21385 428
21386 428
21387 428
21388 428
21389 428
21390 428
21391 428
21392 428
21393 428
21394 428
21395 428
21396 428
21397 428
21398 428
21399 428
21400 428
21401 429
21402 429
21403 429
21404 429
21405 429
21406 429
21407 429
21408 429
21409 429
21410 429
21411 429
21412 429
21413 429
21414 429
21415 429
21416 429
21417 429
21418 429
21419 429
21420 429
21421 429
21422 429
21423 429
21424 429
21425 429
21426 429
21427 429
21428 429
21429 429
21430 429
21431 429
21432 429
21433 429
21434 429
21435 429
21436 429
21437 429
21438 429
21439 429
21440 429
21441 429
21442 429
21443 429
21444 429
21445 429
21446 429
21447 429
21448 429
21449 429
21450 429
21451 430
21452 430
21453 430
21454 430
21455 430
21456 430
21457 430
21458 430
21459 430
21460 430
21461 430
21462 430
21463 430
21464 430
21465 430
21466 430
21467 430
21468 430
21469 430
21470 430
21471 430
21472 430
21473 430
21474 430
21475 430
21476 430
21477 430
21478 430
21479 430
21480 430
21481 430
21482 430
21483 430
21484 430
21485 430
21486 430
21487 430
21488 430
21489 430
21490 430
21491 430
21492 430
21493 430
21494 430
21495 430
21496 430
21497 430
21498 430
21499 430
21500 430
21501 431
21502 431
21503 431
21504 431
21505 431
21506 431
21507 431
21508 431
21509 431
21510 431
21511 431
21512 431
21513 431
21514 431
21515 431
21516 431
21517 431
21518 431
21519 431
21520 431
21521 431
21522 431
21523 431
21524 431
21525 431
21526 431
21527 431
21528 431
21529 431
21530 431
21531 431
21532 431
21533 431
21534 431
21535 431
21536 431
21537 431
21538 431
21539 431
21540 431
21541 431
21542 431
21543 431
21544 431
21545 431
21546 431
21547 431
21548 431
21549 431
21550 431
21551 432
21552 432
21553 432
21554 432
21555 432
21556 432
21557 432
21558 432
21559 432
21560 432
21561 432
21562 432
21563 432
21564 432
21565 432
21566 432
21567 432
21568 432
21569 432
21570 432
21571 432
21572 432
21573 432
21574 432
21575 432
21576 432
21577 432
21578 432
21579 432
21580 432
21581 432
21582 432
21583 432
21584 432
21585 432
21586 432
21587 432
21588 432
21589 432
21590 432
21591 432
21592 432
21593 432
21594 432
21595 432
21596 432
21597 432
21598 432
21599 432
21600 432
21601 433
21602 433
21603 433
21604 433
21605 433
21606 433
21607 433
21608 433
21609 433
21610 433
21611 433
21612 433
21613 433
21614 433
21615 433
21616 433
21617 433
21618 433
21619 433
21620 433
21621 433
21622 433
21623 433
21624 433
21625 433
21626 433
21627 433
21628 433
21629 433
21630 433
21631 433
21632 433
21633 433
21634 433
21635 433
21636 433
21637 433
21638 433
21639 433
21640 433
21641 433
21642 433
21643 433
21644 433
21645 433
21646 433
21647 433
21648 433
21649 433
21650 433
21651 434
21652 434
21653 434
21654 434
21655 434
21656 434
21657 434
21658 434
21659 434
21660 434
21661 434
21662 434
21663 434
21664 434
21665 434
21666 434
21667 434
21668 434
21669 434
21670 434
21671 434
21672 434
21673 434
21674 434
21675 434
21676 434
21677 434
21678 434
21679 434
21680 434
21681 434
21682 434
21683 434
21684 434
21685 434
21686 434
21687 434
21688 434
21689 434
21690 434
21691 434
21692 434
21693 434
21694 434
21695 434
21696 434
21697 434
21698 434
21699 434
21700 434
21701 435
21702 435
21703 435
21704 435
21705 435
21706 435
21707 435
21708 435
21709 435
21710 435
21711 435
21712 435
21713 435
21714 435
21715 435
21716 435
21717 435
21718 435
21719 435
21720 435
21721 435
21722 435
21723 435
21724 435
21725 435
21726 435
21727 435
21728 435
21729 435
21730 435
21731 435
21732 435
21733 435
21734 435
21735 435
21736 435
21737 435
21738 435
21739 435
21740 435
21741 435
21742 435
21743 435
21744 435
21745 435
21746 435
21747 435
21748 435
21749 435
21750 435
21751 436
21752 436
21753 436
21754 436
21755 436
21756 436
21757 436
21758 436
21759 436
21760 436
21761 436
21762 436
21763 436
21764 436
21765 436
21766 436
21767 436
21768 436
21769 436
21770 436
21771 436
21772 436
21773 436
21774 436
21775 436
21776 436
21777 436
21778 436
21779 436
21780 436
21781 436
21782 436
21783 436
21784 436
21785 436
21786 436
21787 436
21788 436
21789 436
21790 436
21791 436
21792 436
21793 436
21794 436
21795 436
21796 436
21797 436
21798 436
21799 436
21800 436
21801 437
21802 437
21803 437
21804 437
21805 437
21806 437
21807 437
21808 437
21809 437
21810 437
21811 437
21812 437
21813 437
21814 437
21815 437
21816 437
21817 437
21818 437
21819 437
21820 437
21821 437
21822 437
21823 437
21824 437
21825 437
21826 437
21827 437
21828 437
21829 437
21830 437
21831 437
21832 437
21833 437
21834 437
21835 437
21836 437
21837 437
21838 437
21839 437
21840 437
21841 437
21842 437
21843 437
21844 437
21845 437
21846 437
21847 437
21848 437
21849 437
21850 437
21851 438
21852 438
21853 438
21854 438
21855 438
21856 438
21857 438
21858 438
21859 438
21860 438
21861 438
21862 438
21863 438
21864 438
21865 438
21866 438
21867 438
21868 438
21869 438
21870 438
21871 438
21872 438
21873 438
21874 438
21875 438
21876 438
21877 438
21878 438
21879 438
21880 438
21881 438
21882 438
21883 438
21884 438
21885 438
21886 438
21887 438
21888 438
21889 438
21890 438
21891 438
21892 438
21893 438
21894 438
21895 438
21896 438
21897 438
21898 438
21899 438
21900 438
21901 439
21902 439
21903 439
21904 439
21905 439
21906 439
21907 439
21908 439
21909 439
21910 439
21911 439
21912 439
21913 439
21914 439
21915 439
21916 439
21917 439
21918 439
21919 439
21920 439
21921 439
21922 439
21923 439
21924 439
21925 439
21926 439
21927 439
21928 439
21929 439
21930 439
21931 439
21932 439
21933 439
21934 439
21935 439
21936 439
21937 439
21938 439
21939 439
21940 439
21941 439
21942 439
21943 439
21944 439
21945 439
21946 439
21947 439
21948 439
21949 439
21950 439
21951 440
21952 440
21953 440
21954 440
21955 440
21956 440
21957 440
21958 440
21959 440
21960 440
21961 440
21962 440
21963 440
21964 440
21965 440
21966 440
21967 440
21968 440
21969 440
21970 440
21971 440
21972 440
21973 440
21974 440
21975 440
21976 440
21977 440
21978 440
21979 440
21980 440
21981 440
21982 440
21983 440
21984 440
21985 440
21986 440
21987 440
21988 440
21989 440
21990 440
21991 440
21992 440
21993 440
21994 440
21995 440
21996 440
21997 440
21998 440
21999 440
22000 440
22001 441
22002 441
22003 441
22004 441
22005 441
22006 441
22007 441
22008 441
22009 441
22010 441
22011 441
22012 441
22013 441
22014 441
22015 441
22016 441
22017 441
22018 441
22019 441
22020 441
22021 441
22022 441
22023 441
22024 441
22025 441
22026 441
22027 441
22028 441
22029 441
22030 441
22031 441
22032 441
22033 441
22034 441
22035 441
22036 441
22037 441
22038 441
22039 441
22040 441
22041 441
22042 441
22043 441
22044 441
22045 441
22046 441
22047 441
22048 441
22049 441
22050 441
22051 442
22052 442
22053 442
22054 442
22055 442
22056 442
22057 442
22058 442
22059 442
22060 442
22061 442
22062 442
22063 442
22064 442
22065 442
22066 442
22067 442
22068 442
22069 442
22070 442
22071 442
22072 442
22073 442
22074 442
22075 442
22076 442
22077 442
22078 442
22079 442
22080 442
22081 442
22082 442
22083 442
22084 442
22085 442
22086 442
22087 442
22088 442
22089 442
22090 442
22091 442
22092 442
22093 442
22094 442
22095 442
22096 442
22097 442
22098 442
22099 442
22100 442
22101 443
22102 443
22103 443
22104 443
22105 443
22106 443
22107 443
22108 443
22109 443
22110 443
22111 443
22112 443
22113 443
22114 443
22115 443
22116 443
22117 443
22118 443
22119 443
22120 443
22121 443
22122 443
22123 443
22124 443
22125 443
22126 443
22127 443
22128 443
22129 443
22130 443
22131 443
22132 443
22133 443
22134 443
22135 443
22136 443
22137 443
22138 443
22139 443
22140 443
22141 443
22142 443
22143 443
22144 443
22145 443
22146 443
22147 443
22148 443
22149 443
22150 443
22151 444
22152 444
22153 444
22154 444
22155 444
22156 444
22157 444
22158 444
22159 444
22160 444
22161 444
22162 444
22163 444
22164 444
22165 444
22166 444
22167 444
22168 444
22169 444
22170 444
22171 444
22172 444
22173 444
22174 444
22175 444
22176 444
22177 444
22178 444
22179 444
22180 444
22181 444
22182 444
22183 444
22184 444
22185 444
22186 444
22187 444
22188 444
22189 444
22190 444
22191 444
22192 444
22193 444
22194 444
22195 444
22196 444
22197 444
22198 444
22199 444
22200 444
22201 445
22202 445
22203 445
22204 445
22205 445
22206 445
22207 445
22208 445
22209 445
22210 445
22211 445
22212 445
22213 445
22214 445
22215 445
22216 445
22217 445
22218 445
22219 445
22220 445
22221 445
22222 445
22223 445
22224 445
22225 445
22226 445
22227 445
22228 445
22229 445
22230 445
22231 445
22232 445
22233 445
22234 445
22235 445
22236 445
22237 445
22238 445
22239 445
22240 445
22241 445
22242 445
22243 445
22244 445
22245 445
22246 445
22247 445
22248 445
22249 445
22250 445
22251 446
22252 446
22253 446
22254 446
22255 446
22256 446
22257 446
22258 446
22259 446
22260 446
22261 446
22262 446
22263 446
22264 446
22265 446
22266 446
22267 446
22268 446
22269 446
22270 446
22271 446
22272 446
22273 446
22274 446
22275 446
22276 446
22277 446
22278 446
22279 446
22280 446
22281 446
22282 446
22283 446
22284 446
22285 446
22286 446
22287 446
22288 446
22289 446
22290 446
22291 446
22292 446
22293 446
22294 446
22295 446
22296 446
22297 446
22298 446
22299 446
22300 446
22301 447
22302 447
22303 447
22304 447
22305 447
22306 447
22307 447
22308 447
22309 447
22310 447
22311 447
22312 447
22313 447
22314 447
22315 447
22316 447
22317 447
22318 447
22319 447
22320 447
22321 447
22322 447
22323 447
22324 447
22325 447
22326 447
22327 447
22328 447
22329 447
22330 447
22331 447
22332 447
22333 447
22334 447
22335 447
22336 447
22337 447
22338 447
22339 447
22340 447
22341 447
22342 447
22343 447
22344 447
22345 447
22346 447
22347 447
22348 447
22349 447
22350 447
22351 448
22352 448
22353 448
22354 448
22355 448
22356 448
22357 448
22358 448
22359 448
22360 448
22361 448
22362 448
22363 448
22364 448
22365 448
22366 448
22367 448
22368 448
22369 448
22370 448
22371 448
22372 448
22373 448
22374 448
22375 448
22376 448
22377 448
22378 448
22379 448
22380 448
22381 448
22382 448
22383 448
22384 448
22385 448
22386 448
22387 448
22388 448
22389 448
22390 448
22391 448
22392 448
22393 448
22394 448
22395 448
22396 448
22397 448
22398 448
22399 448
22400 448
22401 449
22402 449
22403 449
22404 449
22405 449
22406 449
22407 449
22408 449
22409 449
22410 449
22411 449
22412 449
22413 449
22414 449
22415 449
22416 449
22417 449
22418 449
22419 449
22420 449
22421 449
22422 449
22423 449
22424 449
22425 449
22426 449
22427 449
22428 449
22429 449
22430 449
22431 449
22432 449
22433 449
22434 449
22435 449
22436 449
22437 449
22438 449
22439 449
22440 449
22441 449
22442 449
22443 449
22444 449
22445 449
22446 449
22447 449
22448 449
22449 449
22450 449
22451 450
22452 450
22453 450
22454 450
22455 450
22456 450
22457 450
22458 450
22459 450
22460 450
22461 450
22462 450
22463 450
22464 450
22465 450
22466 450
22467 450
22468 450
22469 450
22470 450
22471 450
22472 450
22473 450
22474 450
22475 450
22476 450
22477 450
22478 450
22479 450
22480 450
22481 450
22482 450
22483 450
22484 450
22485 450
22486 450
22487 450
22488 450
22489 450
22490 450
22491 450
22492 450
22493 450
22494 450
22495 450
22496 450
22497 450
22498 450
22499 450
22500 450
22501 451
22502 451
22503 451
22504 451
22505 451
22506 451
22507 451
22508 451
22509 451
22510 451
22511 451
22512 451
22513 451
22514 451
22515 451
22516 451
22517 451
22518 451
22519 451
22520 451
22521 451
22522 451
22523 451
22524 451
22525 451
22526 451
22527 451
22528 451
22529 451
22530 451
22531 451
22532 451
22533 451
22534 451
22535 451
22536 451
22537 451
22538 451
22539 451
22540 451
22541 451
22542 451
22543 451
22544 451
22545 451
22546 451
22547 451
22548 451
22549 451
22550 451
22551 452
22552 452
22553 452
22554 452
22555 452
22556 452
22557 452
22558 452
22559 452
22560 452
22561 452
22562 452
22563 452
22564 452
22565 452
22566 452
22567 452
22568 452
22569 452
22570 452
22571 452
22572 452
22573 452
22574 452
22575 452
22576 452
22577 452
22578 452
22579 452
22580 452
22581 452
22582 452
22583 452
22584 452
22585 452
22586 452
22587 452
22588 452
22589 452
22590 452
22591 452
22592 452
22593 452
22594 452
22595 452
22596 452
22597 452
22598 452
22599 452
22600 452
22601 453
22602 453
22603 453
22604 453
22605 453
22606 453
22607 453
22608 453
22609 453
22610 453
22611 453
22612 453
22613 453
22614 453
22615 453
22616 453
22617 453
22618 453
22619 453
22620 453
22621 453
22622 453
22623 453
22624 453
22625 453
22626 453
22627 453
22628 453
22629 453
22630 453
22631 453
22632 453
22633 453
22634 453
22635 453
22636 453
22637 453
22638 453
22639 453
22640 453
22641 453
22642 453
22643 453
22644 453
22645 453
22646 453
22647 453
22648 453
22649 453
22650 453
22651 454
22652 454
22653 454
22654 454
22655 454
22656 454
22657 454
22658 454
22659 454
22660 454
22661 454
22662 454
22663 454
22664 454
22665 454
22666 454
22667 454
22668 454
22669 454
22670 454
22671 454
22672 454
22673 454
22674 454
22675 454
22676 454
22677 454
22678 454
22679 454
22680 454
22681 454
22682 454
22683 454
22684 454
22685 454
22686 454
22687 454
22688 454
22689 454
22690 454
22691 454
22692 454
22693 454
22694 454
22695 454
22696 454
22697 454
22698 454
22699 454
22700 454
22701 455
22702 455
22703 455
22704 455
22705 455
22706 455
22707 455
22708 455
22709 455
22710 455
22711 455
22712 455
22713 455
22714 455
22715 455
22716 455
22717 455
22718 455
22719 455
22720 455
22721 455
22722 455
22723 455
22724 455
22725 455
22726 455
22727 455
22728 455
22729 455
22730 455
22731 455
22732 455
22733 455
22734 455
22735 455
22736 455
22737 455
22738 455
22739 455
22740 455
22741 455
22742 455
22743 455
22744 455
22745 455
22746 455
22747 455
22748 455
22749 455
22750 455
22751 456
22752 456
22753 456
22754 456
22755 456
22756 456
22757 456
22758 456
22759 456
22760 456
22761 456
22762 456
22763 456
22764 456
22765 456
22766 456
22767 456
22768 456
22769 456
22770 456
22771 456
22772 456
22773 456
22774 456
22775 456
22776 456
22777 456
22778 456
22779 456
22780 456
22781 456
22782 456
22783 456
22784 456
22785 456
22786 456
22787 456
22788 456
22789 456
22790 456
22791 456
22792 456
22793 456
22794 456
22795 456
22796 456
22797 456
22798 456
22799 456
22800 456
22801 457
22802 457
22803 457
22804 457
22805 457
22806 457
22807 457
22808 457
22809 457
22810 457
22811 457
22812 457
22813 457
22814 457
22815 457
22816 457
22817 457
22818 457
22819 457
22820 457
22821 457
22822 457
22823 457
22824 457
22825 457
22826 457
22827 457
22828 457
22829 457
22830 457
22831 457
22832 457
22833 457
22834 457
22835 457
22836 457
22837 457
22838 457
22839 457
22840 457
22841 457
22842 457
22843 457
22844 457
22845 457
22846 457
22847 457
22848 457
22849 457
22850 457
22851 458
22852 458
22853 458
22854 458
22855 458
22856 458
22857 458
22858 458
22859 458
22860 458
22861 458
22862 458
22863 458
22864 458
22865 458
22866 458
22867 458
22868 458
22869 458
22870 458
22871 458
22872 458
22873 458
22874 458
22875 458
22876 458
22877 458
22878 458
22879 458
22880 458
22881 458
22882 458
22883 458
22884 458
22885 458
22886 458
22887 458
22888 458
22889 458
22890 458
22891 458
22892 458
22893 458
22894 458
22895 458
22896 458
22897 458
22898 458
22899 458
22900 458
22901 459
22902 459
22903 459
22904 459
22905 459
22906 459
22907 459
22908 459
22909 459
22910 459
22911 459
22912 459
22913 459
22914 459
22915 459
22916 459
22917 459
22918 459
22919 459
22920 459
22921 459
22922 459
22923 459
22924 459
22925 459
22926 459
22927 459
22928 459
22929 459
22930 459
22931 459
22932 459
22933 459
22934 459
22935 459
22936 459
22937 459
22938 459
22939 459
22940 459
22941 459
22942 459
22943 459
22944 459
22945 459
22946 459
22947 459
22948 459
22949 459
22950 459
22951 460
22952 460
22953 460
22954 460
22955 460
22956 460
22957 460
22958 460
22959 460
22960 460
22961 460
22962 460
22963 460
22964 460
22965 460
22966 460
22967 460
22968 460
22969 460
22970 460
22971 460
22972 460
22973 460
22974 460
22975 460
22976 460
22977 460
22978 460
22979 460
22980 460
22981 460
22982 460
22983 460
22984 460
22985 460
22986 460
22987 460
22988 460
22989 460
22990 460
22991 460
22992 460
22993 460
22994 460
22995 460
22996 460
22997 460
22998 460
22999 460
23000 460
23001 461
23002 461
23003 461
23004 461
23005 461
23006 461
23007 461
23008 461
23009 461
23010 461
23011 461
23012 461
23013 461
23014 461
23015 461
23016 461
23017 461
23018 461
23019 461
23020 461
23021 461
23022 461
23023 461
23024 461
23025 461
23026 461
23027 461
23028 461
23029 461
23030 461
23031 461
23032 461
23033 461
23034 461
23035 461
23036 461
23037 461
23038 461
23039 461
23040 461
23041 461
23042 461
23043 461
23044 461
23045 461
23046 461
23047 461
23048 461
23049 461
23050 461
23051 462
23052 462
23053 462
23054 462
23055 462
23056 462
23057 462
23058 462
23059 462
23060 462
23061 462
23062 462
23063 462
23064 462
23065 462
23066 462
23067 462
23068 462
23069 462
23070 462
23071 462
23072 462
23073 462
23074 462
23075 462
23076 462
23077 462
23078 462
23079 462
23080 462
23081 462
23082 462
23083 462
23084 462
23085 462
23086 462
23087 462
23088 462
23089 462
23090 462
23091 462
23092 462
23093 462
23094 462
23095 462
23096 462
23097 462
23098 462
23099 462
23100 462
23101 463
23102 463
23103 463
23104 463
23105 463
23106 463
23107 463
23108 463
23109 463
23110 463
23111 463
23112 463
23113 463
23114 463
23115 463
23116 463
23117 463
23118 463
23119 463
23120 463
23121 463
23122 463
23123 463
23124 463
23125 463
23126 463
23127 463
23128 463
23129 463
23130 463
23131 463
23132 463
23133 463
23134 463
23135 463
23136 463
23137 463
23138 463
23139 463
23140 463
23141 463
23142 463
23143 463
23144 463
23145 463
23146 463
23147 463
23148 463
23149 463
23150 463
23151 464
23152 464
23153 464
23154 464
23155 464
23156 464
23157 464
23158 464
23159 464
23160 464
23161 464
23162 464
23163 464
23164 464
23165 464
23166 464
23167 464
23168 464
23169 464
23170 464
23171 464
23172 464
23173 464
23174 464
23175 464
23176 464
23177 464
23178 464
23179 464
23180 464
23181 464
23182 464
23183 464
23184 464
23185 464
23186 464
23187 464
23188 464
23189 464
23190 464
23191 464
23192 464
23193 464
23194 464
23195 464
23196 464
23197 464
23198 464
23199 464
23200 464
23201 465
23202 465
23203 465
23204 465
23205 465
23206 465
23207 465
23208 465
23209 465
23210 465
23211 465
23212 465
23213 465
23214 465
23215 465
23216 465
23217 465
23218 465
23219 465
23220 465
23221 465
23222 465
23223 465
23224 465
23225 465
23226 465
23227 465
23228 465
23229 465
23230 465
23231 465
23232 465
23233 465
23234 465
23235 465
23236 465
23237 465
23238 465
23239 465
23240 465
23241 465
23242 465
23243 465
23244 465
23245 465
23246 465
23247 465
23248 465
23249 465
23250 465
23251 466
23252 466
23253 466
23254 466
23255 466
23256 466
23257 466
23258 466
23259 466
23260 466
23261 466
23262 466
23263 466
23264 466
23265 466
23266 466
23267 466
23268 466
23269 466
23270 466
23271 466
23272 466
23273 466
23274 466
23275 466
23276 466
23277 466
23278 466
23279 466
23280 466
23281 466
23282 466
23283 466
23284 466
23285 466
23286 466
23287 466
23288 466
23289 466
23290 466
23291 466
23292 466
23293 466
23294 466
23295 466
23296 466
23297 466
23298 466
23299 466
23300 466
23301 467
23302 467
23303 467
23304 467
23305 467
23306 467
23307 467
23308 467
23309 467
23310 467
23311 467
23312 467
23313 467
23314 467
23315 467
23316 467
23317 467
23318 467
23319 467
23320 467
23321 467
23322 467
23323 467
23324 467
23325 467
23326 467
23327 467
23328 467
23329 467
23330 467
23331 467
23332 467
23333 467
23334 467
23335 467
23336 467
23337 467
23338 467
23339 467
23340 467
23341 467
23342 467
23343 467
23344 467
23345 467
23346 467
23347 467
23348 467
23349 467
23350 467
23351 468
23352 468
23353 468
23354 468
23355 468
23356 468
23357 468
23358 468
23359 468
23360 468
23361 468
23362 468
23363 468
23364 468
23365 468
23366 468
23367 468
23368 468
23369 468
23370 468
23371 468
23372 468
23373 468
23374 468
23375 468
23376 468
23377 468
23378 468
23379 468
23380 468
23381 468
23382 468
23383 468
23384 468
23385 468
23386 468
23387 468
23388 468
23389 468
23390 468
23391 468
23392 468
23393 468
23394 468
23395 468
23396 468
23397 468
23398 468
23399 468
23400 468
23401 469
23402 469
23403 469
23404 469
23405 469
23406 469
23407 469
23408 469
23409 469
23410 469
23411 469
23412 469
23413 469
23414 469
23415 469
23416 469
23417 469
23418 469
23419 469
23420 469
23421 469
23422 469
23423 469
23424 469
23425 469
23426 469
23427 469
23428 469
23429 469
23430 469
23431 469
23432 469
23433 469
23434 469
23435 469
23436 469
23437 469
23438 469
23439 469
23440 469
23441 469
23442 469
23443 469
23444 469
23445 469
23446 469
23447 469
23448 469
23449 469
23450 469
23451 470
23452 470
23453 470
23454 470
23455 470
23456 470
23457 470
23458 470
23459 470
23460 470
23461 470
23462 470
23463 470
23464 470
23465 470
23466 470
23467 470
23468 470
23469 470
23470 470
23471 470
23472 470
23473 470
23474 470
23475 470
23476 470
23477 470
23478 470
23479 470
23480 470
23481 470
23482 470
23483 470
23484 470
23485 470
23486 470
23487 470
23488 470
23489 470
23490 470
23491 470
23492 470
23493 470
23494 470
23495 470
23496 470
23497 470
23498 470
23499 470
23500 470
23501 471
23502 471
23503 471
23504 471
23505 471
23506 471
23507 471
23508 471
23509 471
23510 471
23511 471
23512 471
23513 471
23514 471
23515 471
23516 471
23517 471
23518 471
23519 471
23520 471
23521 471
23522 471
23523 471
23524 471
23525 471
23526 471
23527 471
23528 471
23529 471
23530 471
23531 471
23532 471
23533 471
23534 471
23535 471
23536 471
23537 471
23538 471
23539 471
23540 471
23541 471
23542 471
23543 471
23544 471
23545 471
23546 471
23547 471
23548 471
23549 471
23550 471
23551 472
23552 472
23553 472
23554 472
23555 472
23556 472
23557 472
23558 472
23559 472
23560 472
23561 472
23562 472
23563 472
23564 472
23565 472
23566 472
23567 472
23568 472
23569 472
23570 472
23571 472
23572 472
23573 472
23574 472
23575 472
23576 472
23577 472
23578 472
23579 472
23580 472
23581 472
23582 472
23583 472
23584 472
23585 472
23586 472
23587 472
23588 472
23589 472
23590 472
23591 472
23592 472
23593 472
23594 472
23595 472
23596 472
23597 472
23598 472
23599 472
23600 472
23601 473
23602 473
23603 473
23604 473
23605 473
23606 473
23607 473
23608 473
23609 473
23610 473
23611 473
23612 473
23613 473
23614 473
23615 473
23616 473
23617 473
23618 473
23619 473
23620 473
23621 473
23622 473
23623 473
23624 473
23625 473
23626 473
23627 473
23628 473
23629 473
23630 473
23631 473
23632 473
23633 473
23634 473
23635 473
23636 473
23637 473
23638 473
23639 473
23640 473
23641 473
23642 473
23643 473
23644 473
23645 473
23646 473
23647 473
23648 473
23649 473
23650 473
23651 474
23652 474
23653 474
23654 474
23655 474
23656 474
23657 474
23658 474
23659 474
23660 474
23661 474
23662 474
23663 474
23664 474
23665 474
23666 474
23667 474
23668 474
23669 474
23670 474
23671 474
23672 474
23673 474
23674 474
23675 474
23676 474
23677 474
23678 474
23679 474
23680 474
23681 474
23682 474
23683 474
23684 474
23685 474
23686 474
23687 474
23688 474
23689 474
23690 474
23691 474
23692 474
23693 474
23694 474
23695 474
23696 474
23697 474
23698 474
23699 474
23700 474
23701 475
23702 475
23703 475
23704 475
23705 475
23706 475
23707 475
23708 475
23709 475
23710 475
23711 475
23712 475
23713 475
23714 475
23715 475
23716 475
23717 475
23718 475
23719 475
23720 475
23721 475
23722 475
23723 475
23724 475
23725 475
23726 475
23727 475
23728 475
23729 475
23730 475
23731 475
23732 475
23733 475
23734 475
23735 475
23736 475
23737 475
23738 475
23739 475
23740 475
23741 475
23742 475
23743 475
23744 475
23745 475
23746 475
23747 475
23748 475
23749 475
23750 475
23751 476
23752 476
23753 476
23754 476
23755 476
23756 476
23757 476
23758 476
23759 476
23760 476
23761 476
23762 476
23763 476
23764 476
23765 476
23766 476
23767 476
23768 476
23769 476
23770 476
23771 476
23772 476
23773 476
23774 476
23775 476
23776 476
23777 476
23778 476
23779 476
23780 476
23781 476
23782 476
23783 476
23784 476
23785 476
23786 476
23787 476
23788 476
23789 476
23790 476
23791 476
23792 476
23793 476
23794 476
23795 476
23796 476
23797 476
23798 476
23799 476
23800 476
23801 477
23802 477
23803 477
23804 477
23805 477
23806 477
23807 477
23808 477
23809 477
23810 477
23811 477
23812 477
23813 477
23814 477
23815 477
23816 477
23817 477
23818 477
23819 477
23820 477
23821 477
23822 477
23823 477
23824 477
23825 477
23826 477
23827 477
23828 477
23829 477
23830 477
23831 477
23832 477
23833 477
23834 477
23835 477
23836 477
23837 477
23838 477
23839 477
23840 477
23841 477
23842 477
23843 477
23844 477
23845 477
23846 477
23847 477
23848 477
23849 477
23850 477
23851 478
23852 478
23853 478
23854 478
23855 478
23856 478
23857 478
23858 478
23859 478
23860 478
23861 478
23862 478
23863 478
23864 478
23865 478
23866 478
23867 478
23868 478
23869 478
23870 478
23871 478
23872 478
23873 478
23874 478
23875 478
23876 478
23877 478
23878 478
23879 478
23880 478
23881 478
23882 478
23883 478
23884 478
23885 478
23886 478
23887 478
23888 478
23889 478
23890 478
23891 478
23892 478
23893 478
23894 478
23895 478
23896 478
23897 478
23898 478
23899 478
23900 478
23901 479
23902 479
23903 479
23904 479
23905 479
23906 479
23907 479
23908 479
23909 479
23910 479
23911 479
23912 479
23913 479
23914 479
23915 479
23916 479
23917 479
23918 479
23919 479
23920 479
23921 479
23922 479
23923 479
23924 479
23925 479
23926 479
23927 479
23928 479
23929 479
23930 479
23931 479
23932 479
23933 479
23934 479
23935 479
23936 479
23937 479
23938 479
23939 479
23940 479
23941 479
23942 479
23943 479
23944 479
23945 479
23946 479
23947 479
23948 479
23949 479
23950 479
23951 480
23952 480
23953 480
23954 480
23955 480
23956 480
23957 480
23958 480
23959 480
23960 480
23961 480
23962 480
23963 480
23964 480
23965 480
23966 480
23967 480
23968 480
23969 480
23970 480
23971 480
23972 480
23973 480
23974 480
23975 480
23976 480
23977 480
23978 480
23979 480
23980 480
23981 480
23982 480
23983 480
23984 480
23985 480
23986 480
23987 480
23988 480
23989 480
23990 480
23991 480
23992 480
23993 480
23994 480
23995 480
23996 480
23997 480
23998 480
23999 480
24000 480
24001 481
24002 481
24003 481
24004 481
24005 481
24006 481
24007 481
24008 481
24009 481
24010 481
24011 481
24012 481
24013 481
24014 481
24015 481
24016 481
24017 481
24018 481
24019 481
24020 481
24021 481
24022 481
24023 481
24024 481
24025 481
24026 481
24027 481
24028 481
24029 481
24030 481
24031 481
24032 481
24033 481
24034 481
24035 481
24036 481
24037 481
24038 481
24039 481
24040 481
24041 481
24042 481
24043 481
24044 481
24045 481
24046 481
24047 481
24048 481
24049 481
24050 481
24051 482
24052 482
24053 482
24054 482
24055 482
24056 482
24057 482
24058 482
24059 482
24060 482
24061 482
24062 482
24063 482
24064 482
24065 482
24066 482
24067 482
24068 482
24069 482
24070 482
24071 482
24072 482
24073 482
24074 482
24075 482
24076 482
24077 482
24078 482
24079 482
24080 482
24081 482
24082 482
24083 482
24084 482
24085 482
24086 482
24087 482
24088 482
24089 482
24090 482
24091 482
24092 482
24093 482
24094 482
24095 482
24096 482
24097 482
24098 482
24099 482
24100 482
24101 483
24102 483
24103 483
24104 483
24105 483
24106 483
24107 483
24108 483
24109 483
24110 483
24111 483
24112 483
24113 483
24114 483
24115 483
24116 483
24117 483
24118 483
24119 483
24120 483
24121 483
24122 483
24123 483
24124 483
24125 483
24126 483
24127 483
24128 483
24129 483
24130 483
24131 483
24132 483
24133 483
24134 483
24135 483
24136 483
24137 483
24138 483
24139 483
24140 483
24141 483
24142 483
24143 483
24144 483
24145 483
24146 483
24147 483
24148 483
24149 483
24150 483
24151 484
24152 484
24153 484
24154 484
24155 484
24156 484
24157 484
24158 484
24159 484
24160 484
24161 484
24162 484
24163 484
24164 484
24165 484
24166 484
24167 484
24168 484
24169 484
24170 484
24171 484
24172 484
24173 484
24174 484
24175 484
24176 484
24177 484
24178 484
24179 484
24180 484
24181 484
24182 484
24183 484
24184 484
24185 484
24186 484
24187 484
24188 484
24189 484
24190 484
24191 484
24192 484
24193 484
24194 484
24195 484
24196 484
24197 484
24198 484
24199 484
24200 484
24201 485
24202 485
24203 485
24204 485
24205 485
24206 485
24207 485
24208 485
24209 485
24210 485
24211 485
24212 485
24213 485
24214 485
24215 485
24216 485
24217 485
24218 485
24219 485
24220 485
24221 485
24222 485
24223 485
24224 485
24225 485
24226 485
24227 485
24228 485
24229 485
24230 485
24231 485
24232 485
24233 485
24234 485
24235 485
24236 485
24237 485
24238 485
24239 485
24240 485
24241 485
24242 485
24243 485
24244 485
24245 485
24246 485
24247 485
24248 485
24249 485
24250 485
24251 486
24252 486
24253 486
24254 486
24255 486
24256 486
24257 486
24258 486
24259 486
24260 486
24261 486
24262 486
24263 486
24264 486
24265 486
24266 486
24267 486
24268 486
24269 486
24270 486
24271 486
24272 486
24273 486
24274 486
24275 486
24276 486
24277 486
24278 486
24279 486
24280 486
24281 486
24282 486
24283 486
24284 486
24285 486
24286 486
24287 486
24288 486
24289 486
24290 486
24291 486
24292 486
24293 486
24294 486
24295 486
24296 486
24297 486
24298 486
24299 486
24300 486
24301 487
24302 487
24303 487
24304 487
24305 487
24306 487
24307 487
24308 487
24309 487
24310 487
24311 487
24312 487
24313 487
24314 487
24315 487
24316 487
24317 487
24318 487
24319 487
24320 487
24321 487
24322 487
24323 487
24324 487
24325 487
24326 487
24327 487
24328 487
24329 487
24330 487
24331 487
24332 487
24333 487
24334 487
24335 487
24336 487
24337 487
24338 487
24339 487
24340 487
24341 487
24342 487
24343 487
24344 487
24345 487
24346 487
24347 487
24348 487
24349 487
24350 487
24351 488
24352 488
24353 488
24354 488
24355 488
24356 488
24357 488
24358 488
24359 488
24360 488
24361 488
24362 488
24363 488
24364 488
24365 488
24366 488
24367 488
24368 488
24369 488
24370 488
24371 488
24372 488
24373 488
24374 488
24375 488
24376 488
24377 488
24378 488
24379 488
24380 488
24381 488
24382 488
24383 488
24384 488
24385 488
24386 488
24387 488
24388 488
24389 488
24390 488
24391 488
24392 488
24393 488
24394 488
24395 488
24396 488
24397 488
24398 488
24399 488
24400 488
24401 489
24402 489
24403 489
24404 489
24405 489
24406 489
24407 489
24408 489
24409 489
24410 489
24411 489
24412 489
24413 489
24414 489
24415 489
24416 489
24417 489
24418 489
24419 489
24420 489
24421 489
24422 489
24423 489
24424 489
24425 489
24426 489
24427 489
24428 489
24429 489
24430 489
24431 489
24432 489
24433 489
24434 489
24435 489
24436 489
24437 489
24438 489
24439 489
24440 489
24441 489
24442 489
24443 489
24444 489
24445 489
24446 489
24447 489
24448 489
24449 489
24450 489
24451 490
24452 490
24453 490
24454 490
24455 490
24456 490
24457 490
24458 490
24459 490
24460 490
24461 490
24462 490
24463 490
24464 490
24465 490
24466 490
24467 490
24468 490
24469 490
24470 490
24471 490
24472 490
24473 490
24474 490
24475 490
24476 490
24477 490
24478 490
24479 490
24480 490
24481 490
24482 490
24483 490
24484 490
24485 490
24486 490
24487 490
24488 490
24489 490
24490 490
24491 490
24492 490
24493 490
24494 490
24495 490
24496 490
24497 490
24498 490
24499 490
24500 490
24501 491
24502 491
24503 491
24504 491
24505 491
24506 491
24507 491
24508 491
24509 491
24510 491
24511 491
24512 491
24513 491
24514 491
24515 491
24516 491
24517 491
24518 491
24519 491
24520 491
24521 491
24522 491
24523 491
24524 491
24525 491
24526 491
24527 491
24528 491
24529 491
24530 491
24531 491
24532 491
24533 491
24534 491
24535 491
24536 491
24537 491
24538 491
24539 491
24540 491
24541 491
24542 491
24543 491
24544 491
24545 491
24546 491
24547 491
24548 491
24549 491
24550 491
24551 492
24552 492
24553 492
24554 492
24555 492
24556 492
24557 492
24558 492
24559 492
24560 492
24561 492
24562 492
24563 492
24564 492
24565 492
24566 492
24567 492
24568 492
24569 492
24570 492
24571 492
24572 492
24573 492
24574 492
24575 492
24576 492
24577 492
24578 492
24579 492
24580 492
24581 492
24582 492
24583 492
24584 492
24585 492
24586 492
24587 492
24588 492
24589 492
24590 492
24591 492
24592 492
24593 492
24594 492
24595 492
24596 492
24597 492
24598 492
24599 492
24600 492
24601 493
24602 493
24603 493
24604 493
24605 493
24606 493
24607 493
24608 493
24609 493
24610 493
24611 493
24612 493
24613 493
24614 493
24615 493
24616 493
24617 493
24618 493
24619 493
24620 493
24621 493
24622 493
24623 493
24624 493
24625 493
24626 493
24627 493
24628 493
24629 493
24630 493
24631 493
24632 493
24633 493
24634 493
24635 493
24636 493
24637 493
24638 493
24639 493
24640 493
24641 493
24642 493
24643 493
24644 493
24645 493
24646 493
24647 493
24648 493
24649 493
24650 493
24651 494
24652 494
24653 494
24654 494
24655 494
24656 494
24657 494
24658 494
24659 494
24660 494
24661 494
24662 494
24663 494
24664 494
24665 494
24666 494
24667 494
24668 494
24669 494
24670 494
24671 494
24672 494
24673 494
24674 494
24675 494
24676 494
24677 494
24678 494
24679 494
24680 494
24681 494
24682 494
24683 494
24684 494
24685 494
24686 494
24687 494
24688 494
24689 494
24690 494
24691 494
24692 494
24693 494
24694 494
24695 494
24696 494
24697 494
24698 494
24699 494
24700 494
24701 495
24702 495
24703 495
24704 495
24705 495
24706 495
24707 495
24708 495
24709 495
24710 495
24711 495
24712 495
24713 495
24714 495
24715 495
24716 495
24717 495
24718 495
24719 495
24720 495
24721 495
24722 495
24723 495
24724 495
24725 495
24726 495
24727 495
24728 495
24729 495
24730 495
24731 495
24732 495
24733 495
24734 495
24735 495
24736 495
24737 495
24738 495
24739 495
24740 495
24741 495
24742 495
24743 495
24744 495
24745 495
24746 495
24747 495
24748 495
24749 495
24750 495
24751 496
24752 496
24753 496
24754 496
24755 496
24756 496
24757 496
24758 496
24759 496
24760 496
24761 496
24762 496
24763 496
24764 496
24765 496
24766 496
24767 496
24768 496
24769 496
24770 496
24771 496
24772 496
24773 496
24774 496
24775 496
24776 496
24777 496
24778 496
24779 496
24780 496
24781 496
24782 496
24783 496
24784 496
24785 496
24786 496
24787 496
24788 496
24789 496
24790 496
24791 496
24792 496
24793 496
24794 496
24795 496
24796 496
24797 496
24798 496
24799 496
24800 496
24801 497
24802 497
24803 497
24804 497
24805 497
24806 497
24807 497
24808 497
24809 497
24810 497
24811 497
24812 497
24813 497
24814 497
24815 497
24816 497
24817 497
24818 497
24819 497
24820 497
24821 497
24822 497
24823 497
24824 497
24825 497
24826 497
24827 497
24828 497
24829 497
24830 497
24831 497
24832 497
24833 497
24834 497
24835 497
24836 497
24837 497
24838 497
24839 497
24840 497
24841 497
24842 497
24843 497
24844 497
24845 497
24846 497
24847 497
24848 497
24849 497
24850 497
24851 498
24852 498
24853 498
24854 498
24855 498
24856 498
24857 498
24858 498
24859 498
24860 498
24861 498
24862 498
24863 498
24864 498
24865 498
24866 498
24867 498
24868 498
24869 498
24870 498
24871 498
24872 498
24873 498
24874 498
24875 498
24876 498
24877 498
24878 498
24879 498
24880 498
24881 498
24882 498
24883 498
24884 498
24885 498
24886 498
24887 498
24888 498
24889 498
24890 498
24891 498
24892 498
24893 498
24894 498
24895 498
24896 498
24897 498
24898 498
24899 498
24900 498
24901 499
24902 499
24903 499
24904 499
24905 499
24906 499
24907 499
24908 499
24909 499
24910 499
24911 499
24912 499
24913 499
24914 499
24915 499
24916 499
24917 499
24918 499
24919 499
24920 499
24921 499
24922 499
24923 499
24924 499
24925 499
24926 499
24927 499
24928 499
24929 499
24930 499
24931 499
24932 499
24933 499
24934 499
24935 499
24936 499
24937 499
24938 499
24939 499
24940 499
24941 499
24942 499
24943 499
24944 499
24945 499
24946 499
24947 499
24948 499
24949 499
24950 499
24951 500
24952 500
24953 500
24954 500
24955 500
24956 500
24957 500
24958 500
24959 500
24960 500
24961 500
24962 500
24963 500
24964 500
24965 500
24966 500
24967 500
24968 500
24969 500
24970 500
24971 500
24972 500
24973 500
24974 500
24975 500
24976 500
24977 500
24978 500
24979 500
24980 500
24981 500
24982 500
24983 500
24984 500
24985 500
24986 500
24987 500
24988 500
24989 500
24990 500
24991 500
24992 500
24993 500
24994 500
24995 500
24996 500
24997 500
24998 500
24999 500
25000 500
25001 501
25002 501
25003 501
25004 501
25005 501
25006 501
25007 501
25008 501
25009 501
25010 501
25011 501
25012 501
25013 501
25014 501
25015 501
25016 501
25017 501
25018 501
25019 501
25020 501
25021 501
25022 501
25023 501
25024 501
25025 501
25026 501
25027 501
25028 501
25029 501
25030 501
25031 501
25032 501
25033 501
25034 501
25035 501
25036 501
25037 501
25038 501
25039 501
25040 501
25041 501
25042 501
25043 501
25044 501
25045 501
25046 501
25047 501
25048 501
25049 501
25050 501
25051 502
25052 502
25053 502
25054 502
25055 502
25056 502
25057 502
25058 502
25059 502
25060 502
25061 502
25062 502
25063 502
25064 502
25065 502
25066 502
25067 502
25068 502
25069 502
25070 502
25071 502
25072 502
25073 502
25074 502
25075 502
25076 502
25077 502
25078 502
25079 502
25080 502
25081 502
25082 502
25083 502
25084 502
25085 502
25086 502
25087 502
25088 502
25089 502
25090 502
25091 502
25092 502
25093 502
25094 502
25095 502
25096 502
25097 502
25098 502
25099 502
25100 502
25101 503
25102 503
25103 503
25104 503
25105 503
25106 503
25107 503
25108 503
25109 503
25110 503
25111 503
25112 503
25113 503
25114 503
25115 503
25116 503
25117 503
25118 503
25119 503
25120 503
25121 503
25122 503
25123 503
25124 503
25125 503
25126 503
25127 503
25128 503
25129 503
25130 503
25131 503
25132 503
25133 503
25134 503
25135 503
25136 503
25137 503
25138 503
25139 503
25140 503
25141 503
25142 503
25143 503
25144 503
25145 503
25146 503
25147 503
25148 503
25149 503
25150 503
25151 504
25152 504
25153 504
25154 504
25155 504
25156 504
25157 504
25158 504
25159 504
25160 504
25161 504
25162 504
25163 504
25164 504
25165 504
25166 504
25167 504
25168 504
25169 504
25170 504
25171 504
25172 504
25173 504
25174 504
25175 504
25176 504
25177 504
25178 504
25179 504
25180 504
25181 504
25182 504
25183 504
25184 504
25185 504
25186 504
25187 504
25188 504
25189 504
25190 504
25191 504
25192 504
25193 504
25194 504
25195 504
25196 504
25197 504
25198 504
25199 504
25200 504
25201 505
25202 505
25203 505
25204 505
25205 505
25206 505
25207 505
25208 505
25209 505
25210 505
25211 505
25212 505
25213 505
25214 505
25215 505
25216 505
25217 505
25218 505
25219 505
25220 505
25221 505
25222 505
25223 505
25224 505
25225 505
25226 505
25227 505
25228 505
25229 505
25230 505
25231 505
25232 505
25233 505
25234 505
25235 505
25236 505
25237 505
25238 505
25239 505
25240 505
25241 505
25242 505
25243 505
25244 505
25245 505
25246 505
25247 505
25248 505
25249 505
25250 505
25251 506
25252 506
25253 506
25254 506
25255 506
25256 506
25257 506
25258 506
25259 506
25260 506
25261 506
25262 506
25263 506
25264 506
25265 506
25266 506
25267 506
25268 506
25269 506
25270 506
25271 506
25272 506
25273 506
25274 506
25275 506
25276 506
25277 506
25278 506
25279 506
25280 506
25281 506
25282 506
25283 506
25284 506
25285 506
25286 506
25287 506
25288 506
25289 506
25290 506
25291 506
25292 506
25293 506
25294 506
25295 506
25296 506
25297 506
25298 506
25299 506
25300 506
25301 507
25302 507
25303 507
25304 507
25305 507
25306 507
25307 507
25308 507
25309 507
25310 507
25311 507
25312 507
25313 507
25314 507
25315 507
25316 507
25317 507
25318 507
25319 507
25320 507
25321 507
25322 507
25323 507
25324 507
25325 507
25326 507
25327 507
25328 507
25329 507
25330 507
25331 507
25332 507
25333 507
25334 507
25335 507
25336 507
25337 507
25338 507
25339 507
25340 507
25341 507
25342 507
25343 507
25344 507
25345 507
25346 507
25347 507
25348 507
25349 507
25350 507
25351 508
25352 508
25353 508
25354 508
25355 508
25356 508
25357 508
25358 508
25359 508
25360 508
25361 508
25362 508
25363 508
25364 508
25365 508
25366 508
25367 508
25368 508
25369 508
25370 508
25371 508
25372 508
25373 508
25374 508
25375 508
25376 508
25377 508
25378 508
25379 508
25380 508
25381 508
25382 508
25383 508
25384 508
25385 508
25386 508
25387 508
25388 508
25389 508
25390 508
25391 508
25392 508
25393 508
25394 508
25395 508
25396 508
25397 508
25398 508
25399 508
25400 508
25401 509
25402 509
25403 509
25404 509
25405 509
25406 509
25407 509
25408 509
25409 509
25410 509
25411 509
25412 509
25413 509
25414 509
25415 509
25416 509
25417 509
25418 509
25419 509
25420 509
25421 509
25422 509
25423 509
25424 509
25425 509
25426 509
25427 509
25428 509
25429 509
25430 509
25431 509
25432 509
25433 509
25434 509
25435 509
25436 509
25437 509
25438 509
25439 509
25440 509
25441 509
25442 509
25443 509
25444 509
25445 509
25446 509
25447 509
25448 509
25449 509
25450 509
25451 510
25452 510
25453 510
25454 510
25455 510
25456 510
25457 510
25458 510
25459 510
25460 510
25461 510
25462 510
25463 510
25464 510
25465 510
25466 510
25467 510
25468 510
25469 510
25470 510
25471 510
25472 510
25473 510
25474 510
25475 510
25476 510
25477 510
25478 510
25479 510
25480 510
25481 510
25482 510
25483 510
25484 510
25485 510
25486 510
25487 510
25488 510
25489 510
25490 510
25491 510
25492 510
25493 510
25494 510
25495 510
25496 510
25497 510
25498 510
25499 510
25500 510
25501 511
25502 511
25503 511
25504 511
25505 511
25506 511
25507 511
25508 511
25509 511
25510 511
25511 511
25512 511
25513 511
25514 511
25515 511
25516 511
25517 511
25518 511
25519 511
25520 511
25521 511
25522 511
25523 511
25524 511
25525 511
25526 511
25527 511
25528 511
25529 511
25530 511
25531 511
25532 511
25533 511
25534 511
25535 511
25536 511
25537 511
25538 511
25539 511
25540 511
25541 511
25542 511
25543 511
25544 511
25545 511
25546 511
25547 511
25548 511
25549 511
25550 511
25551 512
25552 512
25553 512
25554 512
25555 512
25556 512
25557 512
25558 512
25559 512
25560 512
25561 512
25562 512
25563 512
25564 512
25565 512
25566 512
25567 512
25568 512
25569 512
25570 512
25571 512
25572 512
25573 512
25574 512
25575 512
25576 512
25577 512
25578 512
25579 512
25580 512
25581 512
25582 512
25583 512
25584 512
25585 512
25586 512
25587 512
25588 512
25589 512
25590 512
25591 512
25592 512
25593 512
25594 512
25595 512
25596 512
25597 512
25598 512
25599 512
25600 512
25601 513
25602 513
25603 513
25604 513
25605 513
25606 513
25607 513
25608 513
25609 513
25610 513
25611 513
25612 513
25613 513
25614 513
25615 513
25616 513
25617 513
25618 513
25619 513
25620 513
25621 513
25622 513
25623 513
25624 513
25625 513
25626 513
25627 513
25628 513
25629 513
25630 513
25631 513
25632 513
25633 513
25634 513
25635 513
25636 513
25637 513
25638 513
25639 513
25640 513
25641 513
25642 513
25643 513
25644 513
25645 513
25646 513
25647 513
25648 513
25649 513
25650 513
25651 514
25652 514
25653 514
25654 514
25655 514
25656 514
25657 514
25658 514
25659 514
25660 514
25661 514
25662 514
25663 514
25664 514
25665 514
25666 514
25667 514
25668 514
25669 514
25670 514
25671 514
25672 514
25673 514
25674 514
25675 514
25676 514
25677 514
25678 514
25679 514
25680 514
25681 514
25682 514
25683 514
25684 514
25685 514
25686 514
25687 514
25688 514
25689 514
25690 514
25691 514
25692 514
25693 514
25694 514
25695 514
25696 514
25697 514
25698 514
25699 514
25700 514
25701 515
25702 515
25703 515
25704 515
25705 515
25706 515
25707 515
25708 515
25709 515
25710 515
25711 515
25712 515
25713 515
25714 515
25715 515
25716 515
25717 515
25718 515
25719 515
25720 515
25721 515
25722 515
25723 515
25724 515
25725 515
25726 515
25727 515
25728 515
25729 515
25730 515
25731 515
25732 515
25733 515
25734 515
25735 515
25736 515
25737 515
25738 515
25739 515
25740 515
25741 515
25742 515
25743 515
25744 515
25745 515
25746 515
25747 515
25748 515
25749 515
25750 515
25751 516
25752 516
25753 516
25754 516
25755 516
25756 516
25757 516
25758 516
25759 516
25760 516
25761 516
25762 516
25763 516
25764 516
25765 516
25766 516
25767 516
25768 516
25769 516
25770 516
25771 516
25772 516
25773 516
25774 516
25775 516
25776 516
25777 516
25778 516
25779 516
25780 516
25781 516
25782 516
25783 516
25784 516
25785 516
25786 516
25787 516
25788 516
25789 516
25790 516
25791 516
25792 516
25793 516
25794 516
25795 516
25796 516
25797 516
25798 516
25799 516
25800 516
25801 517
25802 517
25803 517
25804 517
25805 517
25806 517
25807 517
25808 517
25809 517
25810 517
25811 517
25812 517
25813 517
25814 517
25815 517
25816 517
25817 517
25818 517
25819 517
25820 517
25821 517
25822 517
25823 517
25824 517
25825 517
25826 517
25827 517
25828 517
25829 517
25830 517
25831 517
25832 517
25833 517
25834 517
25835 517
25836 517
25837 517
25838 517
25839 517
25840 517
25841 517
25842 517
25843 517
25844 517
25845 517
25846 517
25847 517
25848 517
25849 517
25850 517
25851 518
25852 518
25853 518
25854 518
25855 518
25856 518
25857 518
25858 518
25859 518
25860 518
25861 518
25862 518
25863 518
25864 518
25865 518
25866 518
25867 518
25868 518
25869 518
25870 518
25871 518
25872 518
25873 518
25874 518
25875 518
25876 518
25877 518
25878 518
25879 518
25880 518
25881 518
25882 518
25883 518
25884 518
25885 518
25886 518
25887 518
25888 518
25889 518
25890 518
25891 518
25892 518
25893 518
25894 518
25895 518
25896 518
25897 518
25898 518
25899 518
25900 518
25901 519
25902 519
25903 519
25904 519
25905 519
25906 519
25907 519
25908 519
25909 519
25910 519
25911 519
25912 519
25913 519
25914 519
25915 519
25916 519
25917 519
25918 519
25919 519
25920 519
25921 519
25922 519
25923 519
25924 519
25925 519
25926 519
25927 519
25928 519
25929 519
25930 519
25931 519
25932 519
25933 519
25934 519
25935 519
25936 519
25937 519
25938 519
25939 519
25940 519
25941 519
25942 519
25943 519
25944 519
25945 519
25946 519
25947 519
25948 519
25949 519
25950 519
25951 520
25952 520
25953 520
25954 520
25955 520
25956 520
25957 520
25958 520
25959 520
25960 520
25961 520
25962 520
25963 520
25964 520
25965 520
25966 520
25967 520
25968 520
25969 520
25970 520
25971 520
25972 520
25973 520
25974 520
25975 520
25976 520
25977 520
25978 520
25979 520
25980 520
25981 520
25982 520
25983 520
25984 520
25985 520
25986 520
25987 520
25988 520
25989 520
25990 520
25991 520
25992 520
25993 520
25994 520
25995 520
25996 520
25997 520
25998 520
25999 520
26000 520
26001 521
26002 521
26003 521
26004 521
26005 521
26006 521
26007 521
26008 521
26009 521
26010 521
26011 521
26012 521
26013 521
26014 521
26015 521
26016 521
26017 521
26018 521
26019 521
26020 521
26021 521
26022 521
26023 521
26024 521
26025 521
26026 521
26027 521
26028 521
26029 521
26030 521
26031 521
26032 521
26033 521
26034 521
26035 521
26036 521
26037 521
26038 521
26039 521
26040 521
26041 521
26042 521
26043 521
26044 521
26045 521
26046 521
26047 521
26048 521
26049 521
26050 521
26051 522
26052 522
26053 522
26054 522
26055 522
26056 522
26057 522
26058 522
26059 522
26060 522
26061 522
26062 522
26063 522
26064 522
26065 522
26066 522
26067 522
26068 522
26069 522
26070 522
26071 522
26072 522
26073 522
26074 522
26075 522
26076 522
26077 522
26078 522
26079 522
26080 522
26081 522
26082 522
26083 522
26084 522
26085 522
26086 522
26087 522
26088 522
26089 522
26090 522
26091 522
26092 522
26093 522
26094 522
26095 522
26096 522
26097 522
26098 522
26099 522
26100 522
26101 523
26102 523
26103 523
26104 523
26105 523
26106 523
26107 523
26108 523
26109 523
26110 523
26111 523
26112 523
26113 523
26114 523
26115 523
26116 523
26117 523
26118 523
26119 523
26120 523
26121 523
26122 523
26123 523
26124 523
26125 523
26126 523
26127 523
26128 523
26129 523
26130 523
26131 523
26132 523
26133 523
26134 523
26135 523
26136 523
26137 523
26138 523
26139 523
26140 523
26141 523
26142 523
26143 523
26144 523
26145 523
26146 523
26147 523
26148 523
26149 523
26150 523
26151 524
26152 524
26153 524
26154 524
26155 524
26156 524
26157 524
26158 524
26159 524
26160 524
26161 524
26162 524
26163 524
26164 524
26165 524
26166 524
26167 524
26168 524
26169 524
26170 524
26171 524
26172 524
26173 524
26174 524
26175 524
26176 524
26177 524
26178 524
26179 524
26180 524
26181 524
26182 524
26183 524
26184 524
26185 524
26186 524
26187 524
26188 524
26189 524
26190 524
26191 524
26192 524
26193 524
26194 524
26195 524
26196 524
26197 524
26198 524
26199 524
26200 524
26201 525
26202 525
26203 525
26204 525
26205 525
26206 525
26207 525
26208 525
26209 525
26210 525
26211 525
26212 525
26213 525
26214 525
26215 525
26216 525
26217 525
26218 525
26219 525
26220 525
26221 525
26222 525
26223 525
26224 525
26225 525
26226 525
26227 525
26228 525
26229 525
26230 525
26231 525
26232 525
26233 525
26234 525
26235 525
26236 525
26237 525
26238 525
26239 525
26240 525
26241 525
26242 525
26243 525
26244 525
26245 525
26246 525
26247 525
26248 525
26249 525
26250 525
26251 526
26252 526
26253 526
26254 526
26255 526
26256 526
26257 526
26258 526
26259 526
26260 526
26261 526
26262 526
26263 526
26264 526
26265 526
26266 526
26267 526
26268 526
26269 526
26270 526
26271 526
26272 526
26273 526
26274 526
26275 526
26276 526
26277 526
26278 526
26279 526
26280 526
26281 526
26282 526
26283 526
26284 526
26285 526
26286 526
26287 526
26288 526
26289 526
26290 526
26291 526
26292 526
26293 526
26294 526
26295 526
26296 526
26297 526
26298 526
26299 526
26300 526
26301 527
26302 527
26303 527
26304 527
26305 527
26306 527
26307 527
26308 527
26309 527
26310 527
26311 527
26312 527
26313 527
26314 527
26315 527
26316 527
26317 527
26318 527
26319 527
26320 527
26321 527
26322 527
26323 527
26324 527
26325 527
26326 527
26327 527
26328 527
26329 527
26330 527
26331 527
26332 527
26333 527
26334 527
26335 527
26336 527
26337 527
26338 527
26339 527
26340 527
26341 527
26342 527
26343 527
26344 527
26345 527
26346 527
26347 527
26348 527
26349 527
26350 527
26351 528
26352 528
26353 528
26354 528
26355 528
26356 528
26357 528
26358 528
26359 528
26360 528
26361 528
26362 528
26363 528
26364 528
26365 528
26366 528
26367 528
26368 528
26369 528
26370 528
26371 528
26372 528
26373 528
26374 528
26375 528
26376 528
26377 528
26378 528
26379 528
26380 528
26381 528
26382 528
26383 528
26384 528
26385 528
26386 528
26387 528
26388 528
26389 528
26390 528
26391 528
26392 528
26393 528
26394 528
26395 528
26396 528
26397 528
26398 528
26399 528
26400 528
26401 529
26402 529
26403 529
26404 529
26405 529
26406 529
26407 529
26408 529
26409 529
26410 529
26411 529
26412 529
26413 529
26414 529
26415 529
26416 529
26417 529
26418 529
26419 529
26420 529
26421 529
26422 529
26423 529
26424 529
26425 529
26426 529
26427 529
26428 529
26429 529
26430 529
26431 529
26432 529
26433 529
26434 529
26435 529
26436 529
26437 529
26438 529
26439 529
26440 529
26441 529
26442 529
26443 529
26444 529
26445 529
26446 529
26447 529
26448 529
26449 529
26450 529
26451 530
26452 530
26453 530
26454 530
26455 530
26456 530
26457 530
26458 530
26459 530
26460 530
26461 530
26462 530
26463 530
26464 530
26465 530
26466 530
26467 530
26468 530
26469 530
26470 530
26471 530
26472 530
26473 530
26474 530
26475 530
26476 530
26477 530
26478 530
26479 530
26480 530
26481 530
26482 530
26483 530
26484 530
26485 530
26486 530
26487 530
26488 530
26489 530
26490 530
26491 530
26492 530
26493 530
26494 530
26495 530
26496 530
26497 530
26498 530
26499 530
26500 530
26501 531
26502 531
26503 531
26504 531
26505 531
26506 531
26507 531
26508 531
26509 531
26510 531
26511 531
26512 531
26513 531
26514 531
26515 531
26516 531
26517 531
26518 531
26519 531
26520 531
26521 531
26522 531
26523 531
26524 531
26525 531
26526 531
26527 531
26528 531
26529 531
26530 531
26531 531
26532 531
26533 531
26534 531
26535 531
26536 531
26537 531
26538 531
26539 531
26540 531
26541 531
26542 531
26543 531
26544 531
26545 531
26546 531
26547 531
26548 531
26549 531
26550 531
26551 532
26552 532
26553 532
26554 532
26555 532
26556 532
26557 532
26558 532
26559 532
26560 532
26561 532
26562 532
26563 532
26564 532
26565 532
26566 532
26567 532
26568 532
26569 532
26570 532
26571 532
26572 532
26573 532
26574 532
26575 532
26576 532
26577 532
26578 532
26579 532
26580 532
26581 532
26582 532
26583 532
26584 532
26585 532
26586 532
26587 532
26588 532
26589 532
26590 532
26591 532
26592 532
26593 532
26594 532
26595 532
26596 532
26597 532
26598 532
26599 532
26600 532
26601 533
26602 533
26603 533
26604 533
26605 533
26606 533
26607 533
26608 533
26609 533
26610 533
26611 533
26612 533
26613 533
26614 533
26615 533
26616 533
26617 533
26618 533
26619 533
26620 533
26621 533
26622 533
26623 533
26624 533
26625 533
26626 533
26627 533
26628 533
26629 533
26630 533
26631 533
26632 533
26633 533
26634 533
26635 533
26636 533
26637 533
26638 533
26639 533
26640 533
26641 533
26642 533
26643 533
26644 533
26645 533
26646 533
26647 533
26648 533
26649 533
26650 533
26651 534
26652 534
26653 534
26654 534
26655 534
26656 534
26657 534
26658 534
26659 534
26660 534
26661 534
26662 534
26663 534
26664 534
26665 534
26666 534
26667 534
26668 534
26669 534
26670 534
26671 534
26672 534
26673 534
26674 534
26675 534
26676 534
26677 534
26678 534
26679 534
26680 534
26681 534
26682 534
26683 534
26684 534
26685 534
26686 534
26687 534
26688 534
26689 534
26690 534
26691 534
26692 534
26693 534
26694 534
26695 534
26696 534
26697 534
26698 534
26699 534
26700 534
26701 535
26702 535
26703 535
26704 535
26705 535
26706 535
26707 535
26708 535
26709 535
26710 535
26711 535
26712 535
26713 535
26714 535
26715 535
26716 535
26717 535
26718 535
26719 535
26720 535
26721 535
26722 535
26723 535
26724 535
26725 535
26726 535
26727 535
26728 535
26729 535
26730 535
26731 535
26732 535
26733 535
26734 535
26735 535
26736 535
26737 535
26738 535
26739 535
26740 535
26741 535
26742 535
26743 535
26744 535
26745 535
26746 535
26747 535
26748 535
26749 535
26750 535
26751 536
26752 536
26753 536
26754 536
26755 536
26756 536
26757 536
26758 536
26759 536
26760 536
26761 536
26762 536
26763 536
26764 536
26765 536
26766 536
26767 536
26768 536
26769 536
26770 536
26771 536
26772 536
26773 536
26774 536
26775 536
26776 536
26777 536
26778 536
26779 536
26780 536
26781 536
26782 536
26783 536
26784 536
26785 536
26786 536
26787 536
26788 536
26789 536
26790 536
26791 536
26792 536
26793 536
26794 536
26795 536
26796 536
26797 536
26798 536
26799 536
26800 536
26801 537
26802 537
26803 537
26804 537
26805 537
26806 537
26807 537
26808 537
26809 537
26810 537
26811 537
26812 537
26813 537
26814 537
26815 537
26816 537
26817 537
26818 537
26819 537
26820 537
26821 537
26822 537
26823 537
26824 537
26825 537
26826 537
26827 537
26828 537
26829 537
26830 537
26831 537
26832 537
26833 537
26834 537
26835 537
26836 537
26837 537
26838 537
26839 537
26840 537
26841 537
26842 537
26843 537
26844 537
26845 537
26846 537
26847 537
26848 537
26849 537
26850 537
26851 538
26852 538
26853 538
26854 538
26855 538
26856 538
26857 538
26858 538
26859 538
26860 538
26861 538
26862 538
26863 538
26864 538
26865 538
26866 538
26867 538
26868 538
26869 538
26870 538
26871 538
26872 538
26873 538
26874 538
26875 538
26876 538
26877 538
26878 538
26879 538
26880 538
26881 538
26882 538
26883 538
26884 538
26885 538
26886 538
26887 538
26888 538
26889 538
26890 538
26891 538
26892 538
26893 538
26894 538
26895 538
26896 538
26897 538
26898 538
26899 538
26900 538
26901 539
26902 539
26903 539
26904 539
26905 539
26906 539
26907 539
26908 539
26909 539
26910 539
26911 539
26912 539
26913 539
26914 539
26915 539
26916 539
26917 539
26918 539
26919 539
26920 539
26921 539
26922 539
26923 539
26924 539
26925 539
26926 539
26927 539
26928 539
26929 539
26930 539
26931 539
26932 539
26933 539
26934 539
26935 539
26936 539
26937 539
26938 539
26939 539
26940 539
26941 539
26942 539
26943 539
26944 539
26945 539
26946 539
26947 539
26948 539
26949 539
26950 539
26951 540
26952 540
26953 540
26954 540
26955 540
26956 540
26957 540
26958 540
26959 540
26960 540
26961 540
26962 540
26963 540
26964 540
26965 540
26966 540
26967 540
26968 540
26969 540
26970 540
26971 540
26972 540
26973 540
26974 540
26975 540
26976 540
26977 540
26978 540
26979 540
26980 540
26981 540
26982 540
26983 540
26984 540
26985 540
26986 540
26987 540
26988 540
26989 540
26990 540
26991 540
26992 540
26993 540
26994 540
26995 540
26996 540
26997 540
26998 540
26999 540
27000 540
27001 541
27002 541
27003 541
27004 541
27005 541
27006 541
27007 541
27008 541
27009 541
27010 541
27011 541
27012 541
27013 541
27014 541
27015 541
27016 541
27017 541
27018 541
27019 541
27020 541
27021 541
27022 541
27023 541
27024 541
27025 541
27026 541
27027 541
27028 541
27029 541
27030 541
27031 541
27032 541
27033 541
27034 541
27035 541
27036 541
27037 541
27038 541
27039 541
27040 541
27041 541
27042 541
27043 541
27044 541
27045 541
27046 541
27047 541
27048 541
27049 541
27050 541
27051 542
27052 542
27053 542
27054 542
27055 542
27056 542
27057 542
27058 542
27059 542
27060 542
27061 542
27062 542
27063 542
27064 542
27065 542
27066 542
27067 542
27068 542
27069 542
27070 542
27071 542
27072 542
27073 542
27074 542
27075 542
27076 542
27077 542
27078 542
27079 542
27080 542
27081 542
27082 542
27083 542
27084 542
27085 542
27086 542
27087 542
27088 542
27089 542
27090 542
27091 542
27092 542
27093 542
27094 542
27095 542
27096 542
27097 542
27098 542
27099 542
27100 542
27101 543
27102 543
27103 543
27104 543
27105 543
27106 543
27107 543
27108 543
27109 543
27110 543
27111 543
27112 543
27113 543
27114 543
27115 543
27116 543
27117 543
27118 543
27119 543
27120 543
27121 543
27122 543
27123 543
27124 543
27125 543
27126 543
27127 543
27128 543
27129 543
27130 543
27131 543
27132 543
27133 543
27134 543
27135 543
27136 543
27137 543
27138 543
27139 543
27140 543
27141 543
27142 543
27143 543
27144 543
27145 543
27146 543
27147 543
27148 543
27149 543
27150 543
27151 544
27152 544
27153 544
27154 544
27155 544
27156 544
27157 544
27158 544
27159 544
27160 544
27161 544
27162 544
27163 544
27164 544
27165 544
27166 544
27167 544
27168 544
27169 544
27170 544
27171 544
27172 544
27173 544
27174 544
27175 544
27176 544
27177 544
27178 544
27179 544
27180 544
27181 544
27182 544
27183 544
27184 544
27185 544
27186 544
27187 544
27188 544
27189 544
27190 544
27191 544
27192 544
27193 544
27194 544
27195 544
27196 544
27197 544
27198 544
27199 544
27200 544
27201 545
27202 545
27203 545
27204 545
27205 545
27206 545
27207 545
27208 545
27209 545
27210 545
27211 545
27212 545
27213 545
27214 545
27215 545
27216 545
27217 545
27218 545
27219 545
27220 545
27221 545
27222 545
27223 545
27224 545
27225 545
27226 545
27227 545
27228 545
27229 545
27230 545
27231 545
27232 545
27233 545
27234 545
27235 545
27236 545
27237 545
27238 545
27239 545
27240 545
27241 545
27242 545
27243 545
27244 545
27245 545
27246 545
27247 545
27248 545
27249 545
27250 545
27251 546
27252 546
27253 546
27254 546
27255 546
27256 546
27257 546
27258 546
27259 546
27260 546
27261 546
27262 546
27263 546
27264 546
27265 546
27266 546
27267 546
27268 546
27269 546
27270 546
27271 546
27272 546
27273 546
27274 546
27275 546
27276 546
27277 546
27278 546
27279 546
27280 546
27281 546
27282 546
27283 546
27284 546
27285 546
27286 546
27287 546
27288 546
27289 546
27290 546
27291 546
27292 546
27293 546
27294 546
27295 546
27296 546
27297 546
27298 546
27299 546
27300 546
27301 547
27302 547
27303 547
27304 547
27305 547
27306 547
27307 547
27308 547
27309 547
27310 547
27311 547
27312 547
27313 547
27314 547
27315 547
27316 547
27317 547
27318 547
27319 547
27320 547
27321 547
27322 547
27323 547
27324 547
27325 547
27326 547
27327 547
27328 547
27329 547
27330 547
27331 547
27332 547
27333 547
27334 547
27335 547
27336 547
27337 547
27338 547
27339 547
27340 547
27341 547
27342 547
27343 547
27344 547
27345 547
27346 547
27347 547
27348 547
27349 547
27350 547
27351 548
27352 548
27353 548
27354 548
27355 548
27356 548
27357 548
27358 548
27359 548
27360 548
27361 548
27362 548
27363 548
27364 548
27365 548
27366 548
27367 548
27368 548
27369 548
27370 548
27371 548
27372 548
27373 548
27374 548
27375 548
27376 548
27377 548
27378 548
27379 548
27380 548
27381 548
27382 548
27383 548
27384 548
27385 548
27386 548
27387 548
27388 548
27389 548
27390 548
27391 548
27392 548
27393 548
27394 548
27395 548
27396 548
27397 548
27398 548
27399 548
27400 548
27401 549
27402 549
27403 549
27404 549
27405 549
27406 549
27407 549
27408 549
27409 549
27410 549
27411 549
27412 549
27413 549
27414 549
27415 549
27416 549
27417 549
27418 549
27419 549
27420 549
27421 549
27422 549
27423 549
27424 549
27425 549
27426 549
27427 549
27428 549
27429 549
27430 549
27431 549
27432 549
27433 549
27434 549
27435 549
27436 549
27437 549
27438 549
27439 549
27440 549
27441 549
27442 549
27443 549
27444 549
27445 549
27446 549
27447 549
27448 549
27449 549
27450 549
27451 550
27452 550
27453 550
27454 550
27455 550
27456 550
27457 550
27458 550
27459 550
27460 550
27461 550
27462 550
27463 550
27464 550
27465 550
27466 550
27467 550
27468 550
27469 550
27470 550
27471 550
27472 550
27473 550
27474 550
27475 550
27476 550
27477 550
27478 550
27479 550
27480 550
27481 550
27482 550
27483 550
27484 550
27485 550
27486 550
27487 550
27488 550
27489 550
27490 550
27491 550
27492 550
27493 550
27494 550
27495 550
27496 550
27497 550
27498 550
27499 550
27500 550
27501 551
27502 551
27503 551
27504 551
27505 551
27506 551
27507 551
27508 551
27509 551
27510 551
27511 551
27512 551
27513 551
27514 551
27515 551
27516 551
27517 551
27518 551
27519 551
27520 551
27521 551
27522 551
27523 551
27524 551
27525 551
27526 551
27527 551
27528 551
27529 551
27530 551
27531 551
27532 551
27533 551
27534 551
27535 551
27536 551
27537 551
27538 551
27539 551
27540 551
27541 551
27542 551
27543 551
27544 551
27545 551
27546 551
27547 551
27548 551
27549 551
27550 551
27551 552
27552 552
27553 552
27554 552
27555 552
27556 552
27557 552
27558 552
27559 552
27560 552
27561 552
27562 552
27563 552
27564 552
27565 552
27566 552
27567 552
27568 552
27569 552
27570 552
27571 552
27572 552
27573 552
27574 552
27575 552
27576 552
27577 552
27578 552
27579 552
27580 552
27581 552
27582 552
27583 552
27584 552
27585 552
27586 552
27587 552
27588 552
27589 552
27590 552
27591 552
27592 552
27593 552
27594 552
27595 552
27596 552
27597 552
27598 552
27599 552
27600 552
27601 553
27602 553
27603 553
27604 553
27605 553
27606 553
27607 553
27608 553
27609 553
27610 553
27611 553
27612 553
27613 553
27614 553
27615 553
27616 553
27617 553
27618 553
27619 553
27620 553
27621 553
27622 553
27623 553
27624 553
27625 553
27626 553
27627 553
27628 553
27629 553
27630 553
27631 553
27632 553
27633 553
27634 553
27635 553
27636 553
27637 553
27638 553
27639 553
27640 553
27641 553
27642 553
27643 553
27644 553
27645 553
27646 553
27647 553
27648 553
27649 553
27650 553
27651 554
27652 554
27653 554
27654 554
27655 554
27656 554
27657 554
27658 554
27659 554
27660 554
27661 554
27662 554
27663 554
27664 554
27665 554
27666 554
27667 554
27668 554
27669 554
27670 554
27671 554
27672 554
27673 554
27674 554
27675 554
27676 554
27677 554
27678 554
27679 554
27680 554
27681 554
27682 554
27683 554
27684 554
27685 554
27686 554
27687 554
27688 554
27689 554
27690 554
27691 554
27692 554
27693 554
27694 554
27695 554
27696 554
27697 554
27698 554
27699 554
27700 554
27701 555
27702 555
27703 555
27704 555
27705 555
27706 555
27707 555
27708 555
27709 555
27710 555
27711 555
27712 555
27713 555
27714 555
27715 555
27716 555
27717 555
27718 555
27719 555
27720 555
27721 555
27722 555
27723 555
27724 555
27725 555
27726 555
27727 555
27728 555
27729 555
27730 555
27731 555
27732 555
27733 555
27734 555
27735 555
27736 555
27737 555
27738 555
27739 555
27740 555
27741 555
27742 555
27743 555
27744 555
27745 555
27746 555
27747 555
27748 555
27749 555
27750 555
27751 556
27752 556
27753 556
27754 556
27755 556
27756 556
27757 556
27758 556
27759 556
27760 556
27761 556
27762 556
27763 556
27764 556
27765 556
27766 556
27767 556
27768 556
27769 556
27770 556
27771 556
27772 556
27773 556
27774 556
27775 556
27776 556
27777 556
27778 556
27779 556
27780 556
27781 556
27782 556
27783 556
27784 556
27785 556
27786 556
27787 556
27788 556
27789 556
27790 556
27791 556
27792 556
27793 556
27794 556
27795 556
27796 556
27797 556
27798 556
27799 556
27800 556
27801 557
27802 557
27803 557
27804 557
27805 557
27806 557
27807 557
27808 557
27809 557
27810 557
27811 557
27812 557
27813 557
27814 557
27815 557
27816 557
27817 557
27818 557
27819 557
27820 557
27821 557
27822 557
27823 557
27824 557
27825 557
27826 557
27827 557
27828 557
27829 557
27830 557
27831 557
27832 557
27833 557
27834 557
27835 557
27836 557
27837 557
27838 557
27839 557
27840 557
27841 557
27842 557
27843 557
27844 557
27845 557
27846 557
27847 557
27848 557
27849 557
27850 557
27851 558
27852 558
27853 558
27854 558
27855 558
27856 558
27857 558
27858 558
27859 558
27860 558
27861 558
27862 558
27863 558
27864 558
27865 558
27866 558
27867 558
27868 558
27869 558
27870 558
27871 558
27872 558
27873 558
27874 558
27875 558
27876 558
27877 558
27878 558
27879 558
27880 558
27881 558
27882 558
27883 558
27884 558
27885 558
27886 558
27887 558
27888 558
27889 558
27890 558
27891 558
27892 558
27893 558
27894 558
27895 558
27896 558
27897 558
27898 558
27899 558
27900 558
27901 559
27902 559
27903 559
27904 559
27905 559
27906 559
27907 559
27908 559
27909 559
27910 559
27911 559
27912 559
27913 559
27914 559
27915 559
27916 559
27917 559
27918 559
27919 559
27920 559
27921 559
27922 559
27923 559
27924 559
27925 559
27926 559
27927 559
27928 559
27929 559
27930 559
27931 559
27932 559
27933 559
27934 559
27935 559
27936 559
27937 559
27938 559
27939 559
27940 559
27941 559
27942 559
27943 559
27944 559
27945 559
27946 559
27947 559
27948 559
27949 559
27950 559
27951 560
27952 560
27953 560
27954 560
27955 560
27956 560
27957 560
27958 560
27959 560
27960 560
27961 560
27962 560
27963 560
27964 560
27965 560
27966 560
27967 560
27968 560
27969 560
27970 560
27971 560
27972 560
27973 560
27974 560
27975 560
27976 560
27977 560
27978 560
27979 560
27980 560
27981 560
27982 560
27983 560
27984 560
27985 560
27986 560
27987 560
27988 560
27989 560
27990 560
27991 560
27992 560
27993 560
27994 560
27995 560
27996 560
27997 560
27998 560
27999 560
28000 560
28001 561
28002 561
28003 561
28004 561
28005 561
28006 561
28007 561
28008 561
28009 561
28010 561
28011 561
28012 561
28013 561
28014 561
28015 561
28016 561
28017 561
28018 561
28019 561
28020 561
28021 561
28022 561
28023 561
28024 561
28025 561
28026 561
28027 561
28028 561
28029 561
28030 561
28031 561
28032 561
28033 561
28034 561
28035 561
28036 561
28037 561
28038 561
28039 561
28040 561
28041 561
28042 561
28043 561
28044 561
28045 561
28046 561
28047 561
28048 561
28049 561
28050 561
28051 562
28052 562
28053 562
28054 562
28055 562
28056 562
28057 562
28058 562
28059 562
28060 562
28061 562
28062 562
28063 562
28064 562
28065 562
28066 562
28067 562
28068 562
28069 562
28070 562
28071 562
28072 562
28073 562
28074 562
28075 562
28076 562
28077 562
28078 562
28079 562
28080 562
28081 562
28082 562
28083 562
28084 562
28085 562
28086 562
28087 562
28088 562
28089 562
28090 562
28091 562
28092 562
28093 562
28094 562
28095 562
28096 562
28097 562
28098 562
28099 562
28100 562
28101 563
28102 563
28103 563
28104 563
28105 563
28106 563
28107 563
28108 563
28109 563
28110 563
28111 563
28112 563
28113 563
28114 563
28115 563
28116 563
28117 563
28118 563
28119 563
28120 563
28121 563
28122 563
28123 563
28124 563
28125 563
28126 563
28127 563
28128 563
28129 563
28130 563
28131 563
28132 563
28133 563
28134 563
28135 563
28136 563
28137 563
28138 563
28139 563
28140 563
28141 563
28142 563
28143 563
28144 563
28145 563
28146 563
28147 563
28148 563
28149 563
28150 563
28151 564
28152 564
28153 564
28154 564
28155 564
28156 564
28157 564
28158 564
28159 564
28160 564
28161 564
28162 564
28163 564
28164 564
28165 564
28166 564
28167 564
28168 564
28169 564
28170 564
28171 564
28172 564
28173 564
28174 564
28175 564
28176 564
28177 564
28178 564
28179 564
28180 564
28181 564
28182 564
28183 564
28184 564
28185 564
28186 564
28187 564
28188 564
28189 564
28190 564
28191 564
28192 564
28193 564
28194 564
28195 564
28196 564
28197 564
28198 564
28199 564
28200 564
28201 565
28202 565
28203 565
28204 565
28205 565
28206 565
28207 565
28208 565
28209 565
28210 565
28211 565
28212 565
28213 565
28214 565
28215 565
28216 565
28217 565
28218 565
28219 565
28220 565
28221 565
28222 565
28223 565
28224 565
28225 565
28226 565
28227 565
28228 565
28229 565
28230 565
28231 565
28232 565
28233 565
28234 565
28235 565
28236 565
28237 565
28238 565
28239 565
28240 565
28241 565
28242 565
28243 565
28244 565
28245 565
28246 565
28247 565
28248 565
28249 565
28250 565
28251 566
28252 566
28253 566
28254 566
28255 566
28256 566
28257 566
28258 566
28259 566
28260 566
28261 566
28262 566
28263 566
28264 566
28265 566
28266 566
28267 566
28268 566
28269 566
28270 566
28271 566
28272 566
28273 566
28274 566
28275 566
28276 566
28277 566
28278 566
28279 566
28280 566
28281 566
28282 566
28283 566
28284 566
28285 566
28286 566
28287 566
28288 566
28289 566
28290 566
28291 566
28292 566
28293 566
28294 566
28295 566
28296 566
28297 566
28298 566
28299 566
28300 566
28301 567
28302 567
28303 567
28304 567
28305 567
28306 567
28307 567
28308 567
28309 567
28310 567
28311 567
28312 567
28313 567
28314 567
28315 567
28316 567
28317 567
28318 567
28319 567
28320 567
28321 567
28322 567
28323 567
28324 567
28325 567
28326 567
28327 567
28328 567
28329 567
28330 567
28331 567
28332 567
28333 567
28334 567
28335 567
28336 567
28337 567
28338 567
28339 567
28340 567
28341 567
28342 567
28343 567
28344 567
28345 567
28346 567
28347 567
28348 567
28349 567
28350 567
28351 568
28352 568
28353 568
28354 568
28355 568
28356 568
28357 568
28358 568
28359 568
28360 568
28361 568
28362 568
28363 568
28364 568
28365 568
28366 568
28367 568
28368 568
28369 568
28370 568
28371 568
28372 568
28373 568
28374 568
28375 568
28376 568
28377 568
28378 568
28379 568
28380 568
28381 568
28382 568
28383 568
28384 568
28385 568
28386 568
28387 568
28388 568
28389 568
28390 568
28391 568
28392 568
28393 568
28394 568
28395 568
28396 568
28397 568
28398 568
28399 568
28400 568
28401 569
28402 569
28403 569
28404 569
28405 569
28406 569
28407 569
28408 569
28409 569
28410 569
28411 569
28412 569
28413 569
28414 569
28415 569
28416 569
28417 569
28418 569
28419 569
28420 569
28421 569
28422 569
28423 569
28424 569
28425 569
28426 569
28427 569
28428 569
28429 569
28430 569
28431 569
28432 569
28433 569
28434 569
28435 569
28436 569
28437 569
28438 569
28439 569
28440 569
28441 569
28442 569
28443 569
28444 569
28445 569
28446 569
28447 569
28448 569
28449 569
28450 569
28451 570
28452 570
28453 570
28454 570
28455 570
28456 570
28457 570
28458 570
28459 570
28460 570
28461 570
28462 570
28463 570
28464 570
28465 570
28466 570
28467 570
28468 570
28469 570
28470 570
28471 570
28472 570
28473 570
28474 570
28475 570
28476 570
28477 570
28478 570
28479 570
28480 570
28481 570
28482 570
28483 570
28484 570
28485 570
28486 570
28487 570
28488 570
28489 570
28490 570
28491 570
28492 570
28493 570
28494 570
28495 570
28496 570
28497 570
28498 570
28499 570
28500 570
28501 571
28502 571
28503 571
28504 571
28505 571
28506 571
28507 571
28508 571
28509 571
28510 571
28511 571
28512 571
28513 571
28514 571
28515 571
28516 571
28517 571
28518 571
28519 571
28520 571
28521 571
28522 571
28523 571
28524 571
28525 571
28526 571
28527 571
28528 571
28529 571
28530 571
28531 571
28532 571
28533 571
28534 571
28535 571
28536 571
28537 571
28538 571
28539 571
28540 571
28541 571
28542 571
28543 571
28544 571
28545 571
28546 571
28547 571
28548 571
28549 571
28550 571
28551 572
28552 572
28553 572
28554 572
28555 572
28556 572
28557 572
28558 572
28559 572
28560 572
28561 572
28562 572
28563 572
28564 572
28565 572
28566 572
28567 572
28568 572
28569 572
28570 572
28571 572
28572 572
28573 572
28574 572
28575 572
28576 572
28577 572
28578 572
28579 572
28580 572
28581 572
28582 572
28583 572
28584 572
28585 572
28586 572
28587 572
28588 572
28589 572
28590 572
28591 572
28592 572
28593 572
28594 572
28595 572
28596 572
28597 572
28598 572
28599 572
28600 572
28601 573
28602 573
28603 573
28604 573
28605 573
28606 573
28607 573
28608 573
28609 573
28610 573
28611 573
28612 573
28613 573
28614 573
28615 573
28616 573
28617 573
28618 573
28619 573
28620 573
28621 573
28622 573
28623 573
28624 573
28625 573
28626 573
28627 573
28628 573
28629 573
28630 573
28631 573
28632 573
28633 573
28634 573
28635 573
28636 573
28637 573
28638 573
28639 573
28640 573
28641 573
28642 573
28643 573
28644 573
28645 573
28646 573
28647 573
28648 573
28649 573
28650 573
28651 574
28652 574
28653 574
28654 574
28655 574
28656 574
28657 574
28658 574
28659 574
28660 574
28661 574
28662 574
28663 574
28664 574
28665 574
28666 574
28667 574
28668 574
28669 574
28670 574
28671 574
28672 574
28673 574
28674 574
28675 574
28676 574
28677 574
28678 574
28679 574
28680 574
28681 574
28682 574
28683 574
28684 574
28685 574
28686 574
28687 574
28688 574
28689 574
28690 574
28691 574
28692 574
28693 574
28694 574
28695 574
28696 574
28697 574
28698 574
28699 574
28700 574
28701 575
28702 575
28703 575
28704 575
28705 575
28706 575
28707 575
28708 575
28709 575
28710 575
28711 575
28712 575
28713 575
28714 575
28715 575
28716 575
28717 575
28718 575
28719 575
28720 575
28721 575
28722 575
28723 575
28724 575
28725 575
28726 575
28727 575
28728 575
28729 575
28730 575
28731 575
28732 575
28733 575
28734 575
28735 575
28736 575
28737 575
28738 575
28739 575
28740 575
28741 575
28742 575
28743 575
28744 575
28745 575
28746 575
28747 575
28748 575
28749 575
28750 575
28751 576
28752 576
28753 576
28754 576
28755 576
28756 576
28757 576
28758 576
28759 576
28760 576
28761 576
28762 576
28763 576
28764 576
28765 576
28766 576
28767 576
28768 576
28769 576
28770 576
28771 576
28772 576
28773 576
28774 576
28775 576
28776 576
28777 576
28778 576
28779 576
28780 576
28781 576
28782 576
28783 576
28784 576
28785 576
28786 576
28787 576
28788 576
28789 576
28790 576
28791 576
28792 576
28793 576
28794 576
28795 576
28796 576
28797 576
28798 576
28799 576
28800 576
28801 577
28802 577
28803 577
28804 577
28805 577
28806 577
28807 577
28808 577
28809 577
28810 577
28811 577
28812 577
28813 577
28814 577
28815 577
28816 577
28817 577
28818 577
28819 577
28820 577
28821 577
28822 577
28823 577
28824 577
28825 577
28826 577
28827 577
28828 577
28829 577
28830 577
28831 577
28832 577
28833 577
28834 577
28835 577
28836 577
28837 577
28838 577
28839 577
28840 577
28841 577
28842 577
28843 577
28844 577
28845 577
28846 577
28847 577
28848 577
28849 577
28850 577
28851 578
28852 578
28853 578
28854 578
28855 578
28856 578
28857 578
28858 578
28859 578
28860 578
28861 578
28862 578
28863 578
28864 578
28865 578
28866 578
28867 578
28868 578
28869 578
28870 578
28871 578
28872 578
28873 578
28874 578
28875 578
28876 578
28877 578
28878 578
28879 578
28880 578
28881 578
28882 578
28883 578
28884 578
28885 578
28886 578
28887 578
28888 578
28889 578
28890 578
28891 578
28892 578
28893 578
28894 578
28895 578
28896 578
28897 578
28898 578
28899 578
28900 578
28901 579
28902 579
28903 579
28904 579
28905 579
28906 579
28907 579
28908 579
28909 579
28910 579
28911 579
28912 579
28913 579
28914 579
28915 579
28916 579
28917 579
28918 579
28919 579
28920 579
28921 579
28922 579
28923 579
28924 579
28925 579
28926 579
28927 579
28928 579
28929 579
28930 579
28931 579
28932 579
28933 579
28934 579
28935 579
28936 579
28937 579
28938 579
28939 579
28940 579
28941 579
28942 579
28943 579
28944 579
28945 579
28946 579
28947 579
28948 579
28949 579
28950 579
28951 580
28952 580
28953 580
28954 580
28955 580
28956 580
28957 580
28958 580
28959 580
28960 580
28961 580
28962 580
28963 580
28964 580
28965 580
28966 580
28967 580
28968 580
28969 580
28970 580
28971 580
28972 580
28973 580
28974 580
28975 580
28976 580
28977 580
28978 580
28979 580
28980 580
28981 580
28982 580
28983 580
28984 580
28985 580
28986 580
28987 580
28988 580
28989 580
28990 580
28991 580
28992 580
28993 580
28994 580
28995 580
28996 580
28997 580
28998 580
28999 580
29000 580
29001 581
29002 581
29003 581
29004 581
29005 581
29006 581
29007 581
29008 581
29009 581
29010 581
29011 581
29012 581
29013 581
29014 581
29015 581
29016 581
29017 581
29018 581
29019 581
29020 581
29021 581
29022 581
29023 581
29024 581
29025 581
29026 581
29027 581
29028 581
29029 581
29030 581
29031 581
29032 581
29033 581
29034 581
29035 581
29036 581
29037 581
29038 581
29039 581
29040 581
29041 581
29042 581
29043 581
29044 581
29045 581
29046 581
29047 581
29048 581
29049 581
29050 581
29051 582
29052 582
29053 582
29054 582
29055 582
29056 582
29057 582
29058 582
29059 582
29060 582
29061 582
29062 582
29063 582
29064 582
29065 582
29066 582
29067 582
29068 582
29069 582
29070 582
29071 582
29072 582
29073 582
29074 582
29075 582
29076 582
29077 582
29078 582
29079 582
29080 582
29081 582
29082 582
29083 582
29084 582
29085 582
29086 582
29087 582
29088 582
29089 582
29090 582
29091 582
29092 582
29093 582
29094 582
29095 582
29096 582
29097 582
29098 582
29099 582
29100 582
29101 583
29102 583
29103 583
29104 583
29105 583
29106 583
29107 583
29108 583
29109 583
29110 583
29111 583
29112 583
29113 583
29114 583
29115 583
29116 583
29117 583
29118 583
29119 583
29120 583
29121 583
29122 583
29123 583
29124 583
29125 583
29126 583
29127 583
29128 583
29129 583
29130 583
29131 583
29132 583
29133 583
29134 583
29135 583
29136 583
29137 583
29138 583
29139 583
29140 583
29141 583
29142 583
29143 583
29144 583
29145 583
29146 583
29147 583
29148 583
29149 583
29150 583
29151 584
29152 584
29153 584
29154 584
29155 584
29156 584
29157 584
29158 584
29159 584
29160 584
29161 584
29162 584
29163 584
29164 584
29165 584
29166 584
29167 584
29168 584
29169 584
29170 584
29171 584
29172 584
29173 584
29174 584
29175 584
29176 584
29177 584
29178 584
29179 584
29180 584
29181 584
29182 584
29183 584
29184 584
29185 584
29186 584
29187 584
29188 584
29189 584
29190 584
29191 584
29192 584
29193 584
29194 584
29195 584
29196 584
29197 584
29198 584
29199 584
29200 584
29201 585
29202 585
29203 585
29204 585
29205 585
29206 585
29207 585
29208 585
29209 585
29210 585
29211 585
29212 585
29213 585
29214 585
29215 585
29216 585
29217 585
29218 585
29219 585
29220 585
29221 585
29222 585
29223 585
29224 585
29225 585
29226 585
29227 585
29228 585
29229 585
29230 585
29231 585
29232 585
29233 585
29234 585
29235 585
29236 585
29237 585
29238 585
29239 585
29240 585
29241 585
29242 585
29243 585
29244 585
29245 585
29246 585
29247 585
29248 585
29249 585
29250 585
29251 586
29252 586
29253 586
29254 586
29255 586
29256 586
29257 586
29258 586
29259 586
29260 586
29261 586
29262 586
29263 586
29264 586
29265 586
29266 586
29267 586
29268 586
29269 586
29270 586
29271 586
29272 586
29273 586
29274 586
29275 586
29276 586
29277 586
29278 586
29279 586
29280 586
29281 586
29282 586
29283 586
29284 586
29285 586
29286 586
29287 586
29288 586
29289 586
29290 586
29291 586
29292 586
29293 586
29294 586
29295 586
29296 586
29297 586
29298 586
29299 586
29300 586
29301 587
29302 587
29303 587
29304 587
29305 587
29306 587
29307 587
29308 587
29309 587
29310 587
29311 587
29312 587
29313 587
29314 587
29315 587
29316 587
29317 587
29318 587
29319 587
29320 587
29321 587
29322 587
29323 587
29324 587
29325 587
29326 587
29327 587
29328 587
29329 587
29330 587
29331 587
29332 587
29333 587
29334 587
29335 587
29336 587
29337 587
29338 587
29339 587
29340 587
29341 587
29342 587
29343 587
29344 587
29345 587
29346 587
29347 587
29348 587
29349 587
29350 587
29351 588
29352 588
29353 588
29354 588
29355 588
29356 588
29357 588
29358 588
29359 588
29360 588
29361 588
29362 588
29363 588
29364 588
29365 588
29366 588
29367 588
29368 588
29369 588
29370 588
29371 588
29372 588
29373 588
29374 588
29375 588
29376 588
29377 588
29378 588
29379 588
29380 588
29381 588
29382 588
29383 588
29384 588
29385 588
29386 588
29387 588
29388 588
29389 588
29390 588
29391 588
29392 588
29393 588
29394 588
29395 588
29396 588
29397 588
29398 588
29399 588
29400 588
29401 589
29402 589
29403 589
29404 589
29405 589
29406 589
29407 589
29408 589
29409 589
29410 589
29411 589
29412 589
29413 589
29414 589
29415 589
29416 589
29417 589
29418 589
29419 589
29420 589
29421 589
29422 589
29423 589
29424 589
29425 589
29426 589
29427 589
29428 589
29429 589
29430 589
29431 589
29432 589
29433 589
29434 589
29435 589
29436 589
29437 589
29438 589
29439 589
29440 589
29441 589
29442 589
29443 589
29444 589
29445 589
29446 589
29447 589
29448 589
29449 589
29450 589
29451 590
29452 590
29453 590
29454 590
29455 590
29456 590
29457 590
29458 590
29459 590
29460 590
29461 590
29462 590
29463 590
29464 590
29465 590
29466 590
29467 590
29468 590
29469 590
29470 590
29471 590
29472 590
29473 590
29474 590
29475 590
29476 590
29477 590
29478 590
29479 590
29480 590
29481 590
29482 590
29483 590
29484 590
29485 590
29486 590
29487 590
29488 590
29489 590
29490 590
29491 590
29492 590
29493 590
29494 590
29495 590
29496 590
29497 590
29498 590
29499 590
29500 590
29501 591
29502 591
29503 591
29504 591
29505 591
29506 591
29507 591
29508 591
29509 591
29510 591
29511 591
29512 591
29513 591
29514 591
29515 591
29516 591
29517 591
29518 591
29519 591
29520 591
29521 591
29522 591
29523 591
29524 591
29525 591
29526 591
29527 591
29528 591
29529 591
29530 591
29531 591
29532 591
29533 591
29534 591
29535 591
29536 591
29537 591
29538 591
29539 591
29540 591
29541 591
29542 591
29543 591
29544 591
29545 591
29546 591
29547 591
29548 591
29549 591
29550 591
29551 592
29552 592
29553 592
29554 592
29555 592
29556 592
29557 592
29558 592
29559 592
29560 592
29561 592
29562 592
29563 592
29564 592
29565 592
29566 592
29567 592
29568 592
29569 592
29570 592
29571 592
29572 592
29573 592
29574 592
29575 592
29576 592
29577 592
29578 592
29579 592
29580 592
29581 592
29582 592
29583 592
29584 592
29585 592
29586 592
29587 592
29588 592
29589 592
29590 592
29591 592
29592 592
29593 592
29594 592
29595 592
29596 592
29597 592
29598 592
29599 592
29600 592
29601 593
29602 593
29603 593
29604 593
29605 593
29606 593
29607 593
29608 593
29609 593
29610 593
29611 593
29612 593
29613 593
29614 593
29615 593
29616 593
29617 593
29618 593
29619 593
29620 593
29621 593
29622 593
29623 593
29624 593
29625 593
29626 593
29627 593
29628 593
29629 593
29630 593
29631 593
29632 593
29633 593
29634 593
29635 593
29636 593
29637 593
29638 593
29639 593
29640 593
29641 593
29642 593
29643 593
29644 593
29645 593
29646 593
29647 593
29648 593
29649 593
29650 593
29651 594
29652 594
29653 594
29654 594
29655 594
29656 594
29657 594
29658 594
29659 594
29660 594
29661 594
29662 594
29663 594
29664 594
29665 594
29666 594
29667 594
29668 594
29669 594
29670 594
29671 594
29672 594
29673 594
29674 594
29675 594
29676 594
29677 594
29678 594
29679 594
29680 594
29681 594
29682 594
29683 594
29684 594
29685 594
29686 594
29687 594
29688 594
29689 594
29690 594
29691 594
29692 594
29693 594
29694 594
29695 594
29696 594
29697 594
29698 594
29699 594
29700 594
29701 595
29702 595
29703 595
29704 595
29705 595
29706 595
29707 595
29708 595
29709 595
29710 595
29711 595
29712 595
29713 595
29714 595
29715 595
29716 595
29717 595
29718 595
29719 595
29720 595
29721 595
29722 595
29723 595
29724 595
29725 595
29726 595
29727 595
29728 595
29729 595
29730 595
29731 595
29732 595
29733 595
29734 595
29735 595
29736 595
29737 595
29738 595
29739 595
29740 595
29741 595
29742 595
29743 595
29744 595
29745 595
29746 595
29747 595
29748 595
29749 595
29750 595
29751 596
29752 596
29753 596
29754 596
29755 596
29756 596
29757 596
29758 596
29759 596
29760 596
29761 596
29762 596
29763 596
29764 596
29765 596
29766 596
29767 596
29768 596
29769 596
29770 596
29771 596
29772 596
29773 596
29774 596
29775 596
29776 596
29777 596
29778 596
29779 596
29780 596
29781 596
29782 596
29783 596
29784 596
29785 596
29786 596
29787 596
29788 596
29789 596
29790 596
29791 596
29792 596
29793 596
29794 596
29795 596
29796 596
29797 596
29798 596
29799 596
29800 596
29801 597
29802 597
29803 597
29804 597
29805 597
29806 597
29807 597
29808 597
29809 597
29810 597
29811 597
29812 597
29813 597
29814 597
29815 597
29816 597
29817 597
29818 597
29819 597
29820 597
29821 597
29822 597
29823 597
29824 597
29825 597
29826 597
29827 597
29828 597
29829 597
29830 597
29831 597
29832 597
29833 597
29834 597
29835 597
29836 597
29837 597
29838 597
29839 597
29840 597
29841 597
29842 597
29843 597
29844 597
29845 597
29846 597
29847 597
29848 597
29849 597
29850 597
29851 598
29852 598
29853 598
29854 598
29855 598
29856 598
29857 598
29858 598
29859 598
29860 598
29861 598
29862 598
29863 598
29864 598
29865 598
29866 598
29867 598
29868 598
29869 598
29870 598
29871 598
29872 598
29873 598
29874 598
29875 598
29876 598
29877 598
29878 598
29879 598
29880 598
29881 598
29882 598
29883 598
29884 598
29885 598
29886 598
29887 598
29888 598
29889 598
29890 598
29891 598
29892 598
29893 598
29894 598
29895 598
29896 598
29897 598
29898 598
29899 598
29900 598
29901 599
29902 599
29903 599
29904 599
29905 599
29906 599
29907 599
29908 599
29909 599
29910 599
29911 599
29912 599
29913 599
29914 599
29915 599
29916 599
29917 599
29918 599
29919 599
29920 599
29921 599
29922 599
29923 599
29924 599
29925 599
29926 599
29927 599
29928 599
29929 599
29930 599
29931 599
29932 599
29933 599
29934 599
29935 599
29936 599
29937 599
29938 599
29939 599
29940 599
29941 599
29942 599
29943 599
29944 599
29945 599
29946 599
29947 599
29948 599
29949 599
29950 599
29951 600
29952 600
29953 600
29954 600
29955 600
29956 600
29957 600
29958 600
29959 600
29960 600
29961 600
29962 600
29963 600
29964 600
29965 600
29966 600
29967 600
29968 600
29969 600
29970 600
29971 600
29972 600
29973 600
29974 600
29975 600
29976 600
29977 600
29978 600
29979 600
29980 600
29981 600
29982 600
29983 600
29984 600
29985 600
29986 600
29987 600
29988 600
29989 600
29990 600
29991 600
29992 600
29993 600
29994 600
29995 600
29996 600
29997 600
29998 600
29999 600
30000 600
30001 601
30002 601
30003 601
30004 601
30005 601
30006 601
30007 601
30008 601
30009 601
30010 601
30011 601
30012 601
30013 601
30014 601
30015 601
30016 601
30017 601
30018 601
30019 601
30020 601
30021 601
30022 601
30023 601
30024 601
30025 601
30026 601
30027 601
30028 601
30029 601
30030 601
30031 601
30032 601
30033 601
30034 601
30035 601
30036 601
30037 601
30038 601
30039 601
30040 601
30041 601
30042 601
30043 601
30044 601
30045 601
30046 601
30047 601
30048 601
30049 601
30050 601
30051 602
30052 602
30053 602
30054 602
30055 602
30056 602
30057 602
30058 602
30059 602
30060 602
30061 602
30062 602
30063 602
30064 602
30065 602
30066 602
30067 602
30068 602
30069 602
30070 602
30071 602
30072 602
30073 602
30074 602
30075 602
30076 602
30077 602
30078 602
30079 602
30080 602
30081 602
30082 602
30083 602
30084 602
30085 602
30086 602
30087 602
30088 602
30089 602
30090 602
30091 602
30092 602
30093 602
30094 602
30095 602
30096 602
30097 602
30098 602
30099 602
30100 602
30101 603
30102 603
30103 603
30104 603
30105 603
30106 603
30107 603
30108 603
30109 603
30110 603
30111 603
30112 603
30113 603
30114 603
30115 603
30116 603
30117 603
30118 603
30119 603
30120 603
30121 603
30122 603
30123 603
30124 603
30125 603
30126 603
30127 603
30128 603
30129 603
30130 603
30131 603
30132 603
30133 603
30134 603
30135 603
30136 603
30137 603
30138 603
30139 603
30140 603
30141 603
30142 603
30143 603
30144 603
30145 603
30146 603
30147 603
30148 603
30149 603
30150 603
30151 604
30152 604
30153 604
30154 604
30155 604
30156 604
30157 604
30158 604
30159 604
30160 604
30161 604
30162 604
30163 604
30164 604
30165 604
30166 604
30167 604
30168 604
30169 604
30170 604
30171 604
30172 604
30173 604
30174 604
30175 604
30176 604
30177 604
30178 604
30179 604
30180 604
30181 604
30182 604
30183 604
30184 604
30185 604
30186 604
30187 604
30188 604
30189 604
30190 604
30191 604
30192 604
30193 604
30194 604
30195 604
30196 604
30197 604
30198 604
30199 604
30200 604
30201 605
30202 605
30203 605
30204 605
30205 605
30206 605
30207 605
30208 605
30209 605
30210 605
30211 605
30212 605
30213 605
30214 605
30215 605
30216 605
30217 605
30218 605
30219 605
30220 605
30221 605
30222 605
30223 605
30224 605
30225 605
30226 605
30227 605
30228 605
30229 605
30230 605
30231 605
30232 605
30233 605
30234 605
30235 605
30236 605
30237 605
30238 605
30239 605
30240 605
30241 605
30242 605
30243 605
30244 605
30245 605
30246 605
30247 605
30248 605
30249 605
30250 605
30251 606
30252 606
30253 606
30254 606
30255 606
30256 606
30257 606
30258 606
30259 606
30260 606
30261 606
30262 606
30263 606
30264 606
30265 606
30266 606
30267 606
30268 606
30269 606
30270 606
30271 606
30272 606
30273 606
30274 606
30275 606
30276 606
30277 606
30278 606
30279 606
30280 606
30281 606
30282 606
30283 606
30284 606
30285 606
30286 606
30287 606
30288 606
30289 606
30290 606
30291 606
30292 606
30293 606
30294 606
30295 606
30296 606
30297 606
30298 606
30299 606
30300 606
30301 607
30302 607
30303 607
30304 607
30305 607
30306 607
30307 607
30308 607
30309 607
30310 607
30311 607
30312 607
30313 607
30314 607
30315 607
30316 607
30317 607
30318 607
30319 607
30320 607
30321 607
30322 607
30323 607
30324 607
30325 607
30326 607
30327 607
30328 607
30329 607
30330 607
30331 607
30332 607
30333 607
30334 607
30335 607
30336 607
30337 607
30338 607
30339 607
30340 607
30341 607
30342 607
30343 607
30344 607
30345 607
30346 607
30347 607
30348 607
30349 607
30350 607
30351 608
30352 608
30353 608
30354 608
30355 608
30356 608
30357 608
30358 608
30359 608
30360 608
30361 608
30362 608
30363 608
30364 608
30365 608
30366 608
30367 608
30368 608
30369 608
30370 608
30371 608
30372 608
30373 608
30374 608
30375 608
30376 608
30377 608
30378 608
30379 608
30380 608
30381 608
30382 608
30383 608
30384 608
30385 608
30386 608
30387 608
30388 608
30389 608
30390 608
30391 608
30392 608
30393 608
30394 608
30395 608
30396 608
30397 608
30398 608
30399 608
30400 608
30401 609
30402 609
30403 609
30404 609
30405 609
30406 609
30407 609
30408 609
30409 609
30410 609
30411 609
30412 609
30413 609
30414 609
30415 609
30416 609
30417 609
30418 609
30419 609
30420 609
30421 609
30422 609
30423 609
30424 609
30425 609
30426 609
30427 609
30428 609
30429 609
30430 609
30431 609
30432 609
30433 609
30434 609
30435 609
30436 609
30437 609
30438 609
30439 609
30440 609
30441 609
30442 609
30443 609
30444 609
30445 609
30446 609
30447 609
30448 609
30449 609
30450 609
30451 610
30452 610
30453 610
30454 610
30455 610
30456 610
30457 610
30458 610
30459 610
30460 610
30461 610
30462 610
30463 610
30464 610
30465 610
30466 610
30467 610
30468 610
30469 610
30470 610
30471 610
30472 610
30473 610
30474 610
30475 610
30476 610
30477 610
30478 610
30479 610
30480 610
30481 610
30482 610
30483 610
30484 610
30485 610
30486 610
30487 610
30488 610
30489 610
30490 610
30491 610
30492 610
30493 610
30494 610
30495 610
30496 610
30497 610
30498 610
30499 610
30500 610
30501 611
30502 611
30503 611
30504 611
30505 611
30506 611
30507 611
30508 611
30509 611
30510 611
30511 611
30512 611
30513 611
30514 611
30515 611
30516 611
30517 611
30518 611
30519 611
30520 611
30521 611
30522 611
30523 611
30524 611
30525 611
30526 611
30527 611
30528 611
30529 611
30530 611
30531 611
30532 611
30533 611
30534 611
30535 611
30536 611
30537 611
30538 611
30539 611
30540 611
30541 611
30542 611
30543 611
30544 611
30545 611
30546 611
30547 611
30548 611
30549 611
30550 611
30551 612
30552 612
30553 612
30554 612
30555 612
30556 612
30557 612
30558 612
30559 612
30560 612
30561 612
30562 612
30563 612
30564 612
30565 612
30566 612
30567 612
30568 612
30569 612
30570 612
30571 612
30572 612
30573 612
30574 612
30575 612
30576 612
30577 612
30578 612
30579 612
30580 612
30581 612
30582 612
30583 612
30584 612
30585 612
30586 612
30587 612
30588 612
30589 612
30590 612
30591 612
30592 612
30593 612
30594 612
30595 612
30596 612
30597 612
30598 612
30599 612
30600 612
30601 613
30602 613
30603 613
30604 613
30605 613
30606 613
30607 613
30608 613
30609 613
30610 613
30611 613
30612 613
30613 613
30614 613
30615 613
30616 613
30617 613
30618 613
30619 613
30620 613
30621 613
30622 613
30623 613
30624 613
30625 613
30626 613
30627 613
30628 613
30629 613
30630 613
30631 613
30632 613
30633 613
30634 613
30635 613
30636 613
30637 613
30638 613
30639 613
30640 613
30641 613
30642 613
30643 613
30644 613
30645 613
30646 613
30647 613
30648 613
30649 613
30650 613
30651 614
30652 614
30653 614
30654 614
30655 614
30656 614
30657 614
30658 614
30659 614
30660 614
30661 614
30662 614
30663 614
30664 614
30665 614
30666 614
30667 614
30668 614
30669 614
30670 614
30671 614
30672 614
30673 614
30674 614
30675 614
30676 614
30677 614
30678 614
30679 614
30680 614
30681 614
30682 614
30683 614
30684 614
30685 614
30686 614
30687 614
30688 614
30689 614
30690 614
30691 614
30692 614
30693 614
30694 614
30695 614
30696 614
30697 614
30698 614
30699 614
30700 614
30701 615
30702 615
30703 615
30704 615
30705 615
30706 615
30707 615
30708 615
30709 615
30710 615
30711 615
30712 615
30713 615
30714 615
30715 615
30716 615
30717 615
30718 615
30719 615
30720 615
30721 615
30722 615
30723 615
30724 615
30725 615
30726 615
30727 615
30728 615
30729 615
30730 615
30731 615
30732 615
30733 615
30734 615
30735 615
30736 615
30737 615
30738 615
30739 615
30740 615
30741 615
30742 615
30743 615
30744 615
30745 615
30746 615
30747 615
30748 615
30749 615
30750 615
30751 616
30752 616
30753 616
30754 616
30755 616
30756 616
30757 616
30758 616
30759 616
30760 616
30761 616
30762 616
30763 616
30764 616
30765 616
30766 616
30767 616
30768 616
30769 616
30770 616
30771 616
30772 616
30773 616
30774 616
30775 616
30776 616
30777 616
30778 616
30779 616
30780 616
30781 616
30782 616
30783 616
30784 616
30785 616
30786 616
30787 616
30788 616
30789 616
30790 616
30791 616
30792 616
30793 616
30794 616
30795 616
30796 616
30797 616
30798 616
30799 616
30800 616
30801 617
30802 617
30803 617
30804 617
30805 617
30806 617
30807 617
30808 617
30809 617
30810 617
30811 617
30812 617
30813 617
30814 617
30815 617
30816 617
30817 617
30818 617
30819 617
30820 617
30821 617
30822 617
30823 617
30824 617
30825 617
30826 617
30827 617
30828 617
30829 617
30830 617
30831 617
30832 617
30833 617
30834 617
30835 617
30836 617
30837 617
30838 617
30839 617
30840 617
30841 617
30842 617
30843 617
30844 617
30845 617
30846 617
30847 617
30848 617
30849 617
30850 617
30851 618
30852 618
30853 618
30854 618
30855 618
30856 618
30857 618
30858 618
30859 618
30860 618
30861 618
30862 618
30863 618
30864 618
30865 618
30866 618
30867 618
30868 618
30869 618
30870 618
30871 618
30872 618
30873 618
30874 618
30875 618
30876 618
30877 618
30878 618
30879 618
30880 618
30881 618
30882 618
30883 618
30884 618
30885 618
30886 618
30887 618
30888 618
30889 618
30890 618
30891 618
30892 618
30893 618
30894 618
30895 618
30896 618
30897 618
30898 618
30899 618
30900 618
30901 619
30902 619
30903 619
30904 619
30905 619
30906 619
30907 619
30908 619
30909 619
30910 619
30911 619
30912 619
30913 619
30914 619
30915 619
30916 619
30917 619
30918 619
30919 619
30920 619
30921 619
30922 619
30923 619
30924 619
30925 619
30926 619
30927 619
30928 619
30929 619
30930 619
30931 619
30932 619
30933 619
30934 619
30935 619
30936 619
30937 619
30938 619
30939 619
30940 619
30941 619
30942 619
30943 619
30944 619
30945 619
30946 619
30947 619
30948 619
30949 619
30950 619
30951 620
30952 620
30953 620
30954 620
30955 620
30956 620
30957 620
30958 620
30959 620
30960 620
30961 620
30962 620
30963 620
30964 620
30965 620
30966 620
30967 620
30968 620
30969 620
30970 620
30971 620
30972 620
30973 620
30974 620
30975 620
30976 620
30977 620
30978 620
30979 620
30980 620
30981 620
30982 620
30983 620
30984 620
30985 620
30986 620
30987 620
30988 620
30989 620
30990 620
30991 620
30992 620
30993 620
30994 620
30995 620
30996 620
30997 620
30998 620
30999 620
31000 620
31001 621
31002 621
31003 621
31004 621
31005 621
31006 621
31007 621
31008 621
31009 621
31010 621
31011 621
31012 621
31013 621
31014 621
31015 621
31016 621
31017 621
31018 621
31019 621
31020 621
31021 621
31022 621
31023 621
31024 621
31025 621
31026 621
31027 621
31028 621
31029 621
31030 621
31031 621
31032 621
31033 621
31034 621
31035 621
31036 621
31037 621
31038 621
31039 621
31040 621
31041 621
31042 621
31043 621
31044 621
31045 621
31046 621
31047 621
31048 621
31049 621
31050 621
31051 622
31052 622
31053 622
31054 622
31055 622
31056 622
31057 622
31058 622
31059 622
31060 622
31061 622
31062 622
31063 622
31064 622
31065 622
31066 622
31067 622
31068 622
31069 622
31070 622
31071 622
31072 622
31073 622
31074 622
31075 622
31076 622
31077 622
31078 622
31079 622
31080 622
31081 622
31082 622
31083 622
31084 622
31085 622
31086 622
31087 622
31088 622
31089 622
31090 622
31091 622
31092 622
31093 622
31094 622
31095 622
31096 622
31097 622
31098 622
31099 622
31100 622
31101 623
31102 623
31103 623
31104 623
31105 623
31106 623
31107 623
31108 623
31109 623
31110 623
31111 623
31112 623
31113 623
31114 623
31115 623
31116 623
31117 623
31118 623
31119 623
31120 623
31121 623
31122 623
31123 623
31124 623
31125 623
31126 623
31127 623
31128 623
31129 623
31130 623
31131 623
31132 623
31133 623
31134 623
31135 623
31136 623
31137 623
31138 623
31139 623
31140 623
31141 623
31142 623
31143 623
31144 623
31145 623
31146 623
31147 623
31148 623
31149 623
31150 623
31151 624
31152 624
31153 624
31154 624
31155 624
31156 624
31157 624
31158 624
31159 624
31160 624
31161 624
31162 624
31163 624
31164 624
31165 624
31166 624
31167 624
31168 624
31169 624
31170 624
31171 624
31172 624
31173 624
31174 624
31175 624
31176 624
31177 624
31178 624
31179 624
31180 624
31181 624
31182 624
31183 624
31184 624
31185 624
31186 624
31187 624
31188 624
31189 624
31190 624
31191 624
31192 624
31193 624
31194 624
31195 624
31196 624
31197 624
31198 624
31199 624
31200 624
31201 625
31202 625
31203 625
31204 625
31205 625
31206 625
31207 625
31208 625
31209 625
31210 625
31211 625
31212 625
31213 625
31214 625
31215 625
31216 625
31217 625
31218 625
31219 625
31220 625
31221 625
31222 625
31223 625
31224 625
31225 625
31226 625
31227 625
31228 625
31229 625
31230 625
31231 625
31232 625
31233 625
31234 625
31235 625
31236 625
31237 625
31238 625
31239 625
31240 625
31241 625
31242 625
31243 625
31244 625
31245 625
31246 625
31247 625
31248 625
31249 625
31250 625
31251 626
31252 626
31253 626
31254 626
31255 626
31256 626
31257 626
31258 626
31259 626
31260 626
31261 626
31262 626
31263 626
31264 626
31265 626
31266 626
31267 626
31268 626
31269 626
31270 626
31271 626
31272 626
31273 626
31274 626
31275 626
31276 626
31277 626
31278 626
31279 626
31280 626
31281 626
31282 626
31283 626
31284 626
31285 626
31286 626
31287 626
31288 626
31289 626
31290 626
31291 626
31292 626
31293 626
31294 626
31295 626
31296 626
31297 626
31298 626
31299 626
31300 626
31301 627
31302 627
31303 627
31304 627
31305 627
31306 627
31307 627
31308 627
31309 627
31310 627
31311 627
31312 627
31313 627
31314 627
31315 627
31316 627
31317 627
31318 627
31319 627
31320 627
31321 627
31322 627
31323 627
31324 627
31325 627
31326 627
31327 627
31328 627
31329 627
31330 627
31331 627
31332 627
31333 627
31334 627
31335 627
31336 627
31337 627
31338 627
31339 627
31340 627
31341 627
31342 627
31343 627
31344 627
31345 627
31346 627
31347 627
31348 627
31349 627
31350 627
31351 628
31352 628
31353 628
31354 628
31355 628
31356 628
31357 628
31358 628
31359 628
31360 628
31361 628
31362 628
31363 628
31364 628
31365 628
31366 628
31367 628
31368 628
31369 628
31370 628
31371 628
31372 628
31373 628
31374 628
31375 628
31376 628
31377 628
31378 628
31379 628
31380 628
31381 628
31382 628
31383 628
31384 628
31385 628
31386 628
31387 628
31388 628
31389 628
31390 628
31391 628
31392 628
31393 628
31394 628
31395 628
31396 628
31397 628
31398 628
31399 628
31400 628
31401 629
31402 629
31403 629
31404 629
31405 629
31406 629
31407 629
31408 629
31409 629
31410 629
31411 629
31412 629
31413 629
31414 629
31415 629
31416 629
31417 629
31418 629
31419 629
31420 629
31421 629
31422 629
31423 629
31424 629
31425 629
31426 629
31427 629
31428 629
31429 629
31430 629
31431 629
31432 629
31433 629
31434 629
31435 629
31436 629
31437 629
31438 629
31439 629
31440 629
31441 629
31442 629
31443 629
31444 629
31445 629
31446 629
31447 629
31448 629
31449 629
31450 629
31451 630
31452 630
31453 630
31454 630
31455 630
31456 630
31457 630
31458 630
31459 630
31460 630
31461 630
31462 630
31463 630
31464 630
31465 630
31466 630
31467 630
31468 630
31469 630
31470 630
31471 630
31472 630
31473 630
31474 630
31475 630
31476 630
31477 630
31478 630
31479 630
31480 630
31481 630
31482 630
31483 630
31484 630
31485 630
31486 630
31487 630
31488 630
31489 630
31490 630
31491 630
31492 630
31493 630
31494 630
31495 630
31496 630
31497 630
31498 630
31499 630
31500 630
31501 631
31502 631
31503 631
31504 631
31505 631
31506 631
31507 631
31508 631
31509 631
31510 631
31511 631
31512 631
31513 631
31514 631
31515 631
31516 631
31517 631
31518 631
31519 631
31520 631
31521 631
31522 631
31523 631
31524 631
31525 631
31526 631
31527 631
31528 631
31529 631
31530 631
31531 631
31532 631
31533 631
31534 631
31535 631
31536 631
31537 631
31538 631
31539 631
31540 631
31541 631
31542 631
31543 631
31544 631
31545 631
31546 631
31547 631
31548 631
31549 631
31550 631
31551 632
31552 632
31553 632
31554 632
31555 632
31556 632
31557 632
31558 632
31559 632
31560 632
31561 632
31562 632
31563 632
31564 632
31565 632
31566 632
31567 632
31568 632
31569 632
31570 632
31571 632
31572 632
31573 632
31574 632
31575 632
31576 632
31577 632
31578 632
31579 632
31580 632
31581 632
31582 632
31583 632
31584 632
31585 632
31586 632
31587 632
31588 632
31589 632
31590 632
31591 632
31592 632
31593 632
31594 632
31595 632
31596 632
31597 632
31598 632
31599 632
31600 632
31601 633
31602 633
31603 633
31604 633
31605 633
31606 633
31607 633
31608 633
31609 633
31610 633
31611 633
31612 633
31613 633
31614 633
31615 633
31616 633
31617 633
31618 633
31619 633
31620 633
31621 633
31622 633
31623 633
31624 633
31625 633
31626 633
31627 633
31628 633
31629 633
31630 633
31631 633
31632 633
31633 633
31634 633
31635 633
31636 633
31637 633
31638 633
31639 633
31640 633
31641 633
31642 633
31643 633
31644 633
31645 633
31646 633
31647 633
31648 633
31649 633
31650 633
31651 634
31652 634
31653 634
31654 634
31655 634
31656 634
31657 634
31658 634
31659 634
31660 634
31661 634
31662 634
31663 634
31664 634
31665 634
31666 634
31667 634
31668 634
31669 634
31670 634
31671 634
31672 634
31673 634
31674 634
31675 634
31676 634
31677 634
31678 634
31679 634
31680 634
31681 634
31682 634
31683 634
31684 634
31685 634
31686 634
31687 634
31688 634
31689 634
31690 634
31691 634
31692 634
31693 634
31694 634
31695 634
31696 634
31697 634
31698 634
31699 634
31700 634
31701 635
31702 635
31703 635
31704 635
31705 635
31706 635
31707 635
31708 635
31709 635
31710 635
31711 635
31712 635
31713 635
31714 635
31715 635
31716 635
31717 635
31718 635
31719 635
31720 635
31721 635
31722 635
31723 635
31724 635
31725 635
31726 635
31727 635
31728 635
31729 635
31730 635
31731 635
31732 635
31733 635
31734 635
31735 635
31736 635
31737 635
31738 635
31739 635
31740 635
31741 635
31742 635
31743 635
31744 635
31745 635
31746 635
31747 635
31748 635
31749 635
31750 635
31751 636
31752 636
31753 636
31754 636
31755 636
31756 636
31757 636
31758 636
31759 636
31760 636
31761 636
31762 636
31763 636
31764 636
31765 636
31766 636
31767 636
31768 636
31769 636
31770 636
31771 636
31772 636
31773 636
31774 636
31775 636
31776 636
31777 636
31778 636
31779 636
31780 636
31781 636
31782 636
31783 636
31784 636
31785 636
31786 636
31787 636
31788 636
31789 636
31790 636
31791 636
31792 636
31793 636
31794 636
31795 636
31796 636
31797 636
31798 636
31799 636
31800 636
31801 637
31802 637
31803 637
31804 637
31805 637
31806 637
31807 637
31808 637
31809 637
31810 637
31811 637
31812 637
31813 637
31814 637
31815 637
31816 637
31817 637
31818 637
31819 637
31820 637
31821 637
31822 637
31823 637
31824 637
31825 637
31826 637
31827 637
31828 637
31829 637
31830 637
31831 637
31832 637
31833 637
31834 637
31835 637
31836 637
31837 637
31838 637
31839 637
31840 637
31841 637
31842 637
31843 637
31844 637
31845 637
31846 637
31847 637
31848 637
31849 637
31850 637
31851 638
31852 638
31853 638
31854 638
31855 638
31856 638
31857 638
31858 638
31859 638
31860 638
31861 638
31862 638
31863 638
31864 638
31865 638
31866 638
31867 638
31868 638
31869 638
31870 638
31871 638
31872 638
31873 638
31874 638
31875 638
31876 638
31877 638
31878 638
31879 638
31880 638
31881 638
31882 638
31883 638
31884 638
31885 638
31886 638
31887 638
31888 638
31889 638
31890 638
31891 638
31892 638
31893 638
31894 638
31895 638
31896 638
31897 638
31898 638
31899 638
31900 638
31901 639
31902 639
31903 639
31904 639
31905 639
31906 639
31907 639
31908 639
31909 639
31910 639
31911 639
31912 639
31913 639
31914 639
31915 639
31916 639
31917 639
31918 639
31919 639
31920 639
31921 639
31922 639
31923 639
31924 639
31925 639
31926 639
31927 639
31928 639
31929 639
31930 639
31931 639
31932 639
31933 639
31934 639
31935 639
31936 639
31937 639
31938 639
31939 639
31940 639
31941 639
31942 639
31943 639
31944 639
31945 639
31946 639
31947 639
31948 639
31949 639
31950 639
31951 640
31952 640
31953 640
31954 640
31955 640
31956 640
31957 640
31958 640
31959 640
31960 640
31961 640
31962 640
31963 640
31964 640
31965 640
31966 640
31967 640
31968 640
31969 640
31970 640
31971 640
31972 640
31973 640
31974 640
31975 640
31976 640
31977 640
31978 640
31979 640
31980 640
31981 640
31982 640
31983 640
31984 640
31985 640
31986 640
31987 640
31988 640
31989 640
31990 640
31991 640
31992 640
31993 640
31994 640
31995 640
31996 640
31997 640
31998 640
31999 640
32000 640
32001 641
32002 641
32003 641
32004 641
32005 641
32006 641
32007 641
32008 641
32009 641
32010 641
32011 641
32012 641
32013 641
32014 641
32015 641
32016 641
32017 641
32018 641
32019 641
32020 641
32021 641
32022 641
32023 641
32024 641
32025 641
32026 641
32027 641
32028 641
32029 641
32030 641
32031 641
32032 641
32033 641
32034 641
32035 641
32036 641
32037 641
32038 641
32039 641
32040 641
32041 641
32042 641
32043 641
32044 641
32045 641
32046 641
32047 641
32048 641
32049 641
32050 641
32051 642
32052 642
32053 642
32054 642
32055 642
32056 642
32057 642
32058 642
32059 642
32060 642
32061 642
32062 642
32063 642
32064 642
32065 642
32066 642
32067 642
32068 642
32069 642
32070 642
32071 642
32072 642
32073 642
32074 642
32075 642
32076 642
32077 642
32078 642
32079 642
32080 642
32081 642
32082 642
32083 642
32084 642
32085 642
32086 642
32087 642
32088 642
32089 642
32090 642
32091 642
32092 642
32093 642
32094 642
32095 642
32096 642
32097 642
32098 642
32099 642
32100 642
32101 643
32102 643
32103 643
32104 643
32105 643
32106 643
32107 643
32108 643
32109 643
32110 643
32111 643
32112 643
32113 643
32114 643
32115 643
32116 643
32117 643
32118 643
32119 643
32120 643
32121 643
32122 643
32123 643
32124 643
32125 643
32126 643
32127 643
32128 643
32129 643
32130 643
32131 643
32132 643
32133 643
32134 643
32135 643
32136 643
32137 643
32138 643
32139 643
32140 643
32141 643
32142 643
32143 643
32144 643
32145 643
32146 643
32147 643
32148 643
32149 643
32150 643
32151 644
32152 644
32153 644
32154 644
32155 644
32156 644
32157 644
32158 644
32159 644
32160 644
32161 644
32162 644
32163 644
32164 644
32165 644
32166 644
32167 644
32168 644
32169 644
32170 644
32171 644
32172 644
32173 644
32174 644
32175 644
32176 644
32177 644
32178 644
32179 644
32180 644
32181 644
32182 644
32183 644
32184 644
32185 644
32186 644
32187 644
32188 644
32189 644
32190 644
32191 644
32192 644
32193 644
32194 644
32195 644
32196 644
32197 644
32198 644
32199 644
32200 644
32201 645
32202 645
32203 645
32204 645
32205 645
32206 645
32207 645
32208 645
32209 645
32210 645
32211 645
32212 645
32213 645
32214 645
32215 645
32216 645
32217 645
32218 645
32219 645
32220 645
32221 645
32222 645
32223 645
32224 645
32225 645
32226 645
32227 645
32228 645
32229 645
32230 645
32231 645
32232 645
32233 645
32234 645
32235 645
32236 645
32237 645
32238 645
32239 645
32240 645
32241 645
32242 645
32243 645
32244 645
32245 645
32246 645
32247 645
32248 645
32249 645
32250 645
32251 646
32252 646
32253 646
32254 646
32255 646
32256 646
32257 646
32258 646
32259 646
32260 646
32261 646
32262 646
32263 646
32264 646
32265 646
32266 646
32267 646
32268 646
32269 646
32270 646
32271 646
32272 646
32273 646
32274 646
32275 646
32276 646
32277 646
32278 646
32279 646
32280 646
32281 646
32282 646
32283 646
32284 646
32285 646
32286 646
32287 646
32288 646
32289 646
32290 646
32291 646
32292 646
32293 646
32294 646
32295 646
32296 646
32297 646
32298 646
32299 646
32300 646
32301 647
32302 647
32303 647
32304 647
32305 647
32306 647
32307 647
32308 647
32309 647
32310 647
32311 647
32312 647
32313 647
32314 647
32315 647
32316 647
32317 647
32318 647
32319 647
32320 647
32321 647
32322 647
32323 647
32324 647
32325 647
32326 647
32327 647
32328 647
32329 647
32330 647
32331 647
32332 647
32333 647
32334 647
32335 647
32336 647
32337 647
32338 647
32339 647
32340 647
32341 647
32342 647
32343 647
32344 647
32345 647
32346 647
32347 647
32348 647
32349 647
32350 647
32351 648
32352 648
32353 648
32354 648
32355 648
32356 648
32357 648
32358 648
32359 648
32360 648
32361 648
32362 648
32363 648
32364 648
32365 648
32366 648
32367 648
32368 648
32369 648
32370 648
32371 648
32372 648
32373 648
32374 648
32375 648
32376 648
32377 648
32378 648
32379 648
32380 648
32381 648
32382 648
32383 648
32384 648
32385 648
32386 648
32387 648
32388 648
32389 648
32390 648
32391 648
32392 648
32393 648
32394 648
32395 648
32396 648
32397 648
32398 648
32399 648
32400 648
32401 649
32402 649
32403 649
32404 649
32405 649
32406 649
32407 649
32408 649
32409 649
32410 649
32411 649
32412 649
32413 649
32414 649
32415 649
32416 649
32417 649
32418 649
32419 649
32420 649
32421 649
32422 649
32423 649
32424 649
32425 649
32426 649
32427 649
32428 649
32429 649
32430 649
32431 649
32432 649
32433 649
32434 649
32435 649
32436 649
32437 649
32438 649
32439 649
32440 649
32441 649
32442 649
32443 649
32444 649
32445 649
32446 649
32447 649
32448 649
32449 649
32450 649
32451 650
32452 650
32453 650
32454 650
32455 650
32456 650
32457 650
32458 650
32459 650
32460 650
32461 650
32462 650
32463 650
32464 650
32465 650
32466 650
32467 650
32468 650
32469 650
32470 650
32471 650
32472 650
32473 650
32474 650
32475 650
32476 650
32477 650
32478 650
32479 650
32480 650
32481 650
32482 650
32483 650
32484 650
32485 650
32486 650
32487 650
32488 650
32489 650
32490 650
32491 650
32492 650
32493 650
32494 650
32495 650
32496 650
32497 650
32498 650
32499 650
32500 650
32501 651
32502 651
32503 651
32504 651
32505 651
32506 651
32507 651
32508 651
32509 651
32510 651
32511 651
32512 651
32513 651
32514 651
32515 651
32516 651
32517 651
32518 651
32519 651
32520 651
32521 651
32522 651
32523 651
32524 651
32525 651
32526 651
32527 651
32528 651
32529 651
32530 651
32531 651
32532 651
32533 651
32534 651
32535 651
32536 651
32537 651
32538 651
32539 651
32540 651
32541 651
32542 651
32543 651
32544 651
32545 651
32546 651
32547 651
32548 651
32549 651
32550 651
32551 652
32552 652
32553 652
32554 652
32555 652
32556 652
32557 652
32558 652
32559 652
32560 652
32561 652
32562 652
32563 652
32564 652
32565 652
32566 652
32567 652
32568 652
32569 652
32570 652
32571 652
32572 652
32573 652
32574 652
32575 652
32576 652
32577 652
32578 652
32579 652
32580 652
32581 652
32582 652
32583 652
32584 652
32585 652
32586 652
32587 652
32588 652
32589 652
32590 652
32591 652
32592 652
32593 652
32594 652
32595 652
32596 652
32597 652
32598 652
32599 652
32600 652
32601 653
32602 653
32603 653
32604 653
32605 653
32606 653
32607 653
32608 653
32609 653
32610 653
32611 653
32612 653
32613 653
32614 653
32615 653
32616 653
32617 653
32618 653
32619 653
32620 653
32621 653
32622 653
32623 653
32624 653
32625 653
32626 653
32627 653
32628 653
32629 653
32630 653
32631 653
32632 653
32633 653
32634 653
32635 653
32636 653
32637 653
32638 653
32639 653
32640 653
32641 653
32642 653
32643 653
32644 653
32645 653
32646 653
32647 653
32648 653
32649 653
32650 653
32651 654
32652 654
32653 654
32654 654
32655 654
32656 654
32657 654
32658 654
32659 654
32660 654
32661 654
32662 654
32663 654
32664 654
32665 654
32666 654
32667 654
32668 654
32669 654
32670 654
32671 654
32672 654
32673 654
32674 654
32675 654
32676 654
32677 654
32678 654
32679 654
32680 654
32681 654
32682 654
32683 654
32684 654
32685 654
32686 654
32687 654
32688 654
32689 654
32690 654
32691 654
32692 654
32693 654
32694 654
32695 654
32696 654
32697 654
32698 654
32699 654
32700 654
32701 655
32702 655
32703 655
32704 655
32705 655
32706 655
32707 655
32708 655
32709 655
32710 655
32711 655
32712 655
32713 655
32714 655
32715 655
32716 655
32717 655
32718 655
32719 655
32720 655
32721 655
32722 655
32723 655
32724 655
32725 655
32726 655
32727 655
32728 655
32729 655
32730 655
32731 655
32732 655
32733 655
32734 655
32735 655
32736 655
32737 655
32738 655
32739 655
32740 655
32741 655
32742 655
32743 655
32744 655
32745 655
32746 655
32747 655
32748 655
32749 655
32750 655
32751 656
32752 656
32753 656
32754 656
32755 656
32756 656
32757 656
32758 656
32759 656
32760 656
32761 656
32762 656
32763 656
32764 656
32765 656
32766 656
32767 656
32768 656
32769 656
32770 656
32771 656
32772 656
32773 656
32774 656
32775 656
32776 656
32777 656
32778 656
32779 656
32780 656
32781 656
32782 656
32783 656
32784 656
32785 656
32786 656
32787 656
32788 656
32789 656
32790 656
32791 656
32792 656
32793 656
32794 656
32795 656
32796 656
32797 656
32798 656
32799 656
32800 656
32801 657
32802 657
32803 657
32804 657
32805 657
32806 657
32807 657
32808 657
32809 657
32810 657
32811 657
32812 657
32813 657
32814 657
32815 657
32816 657
32817 657
32818 657
32819 657
32820 657
32821 657
32822 657
32823 657
32824 657
32825 657
32826 657
32827 657
32828 657
32829 657
32830 657
32831 657
32832 657
32833 657
32834 657
32835 657
32836 657
32837 657
32838 657
32839 657
32840 657
32841 657
32842 657
32843 657
32844 657
32845 657
32846 657
32847 657
32848 657
32849 657
32850 657
32851 658
32852 658
32853 658
32854 658
32855 658
32856 658
32857 658
32858 658
32859 658
32860 658
32861 658
32862 658
32863 658
32864 658
32865 658
32866 658
32867 658
32868 658
32869 658
32870 658
32871 658
32872 658
32873 658
32874 658
32875 658
32876 658
32877 658
32878 658
32879 658
32880 658
32881 658
32882 658
32883 658
32884 658
32885 658
32886 658
32887 658
32888 658
32889 658
32890 658
32891 658
32892 658
32893 658
32894 658
32895 658
32896 658
32897 658
32898 658
32899 658
32900 658
32901 659
32902 659
32903 659
32904 659
32905 659
32906 659
32907 659
32908 659
32909 659
32910 659
32911 659
32912 659
32913 659
32914 659
32915 659
32916 659
32917 659
32918 659
32919 659
32920 659
32921 659
32922 659
32923 659
32924 659
32925 659
32926 659
32927 659
32928 659
32929 659
32930 659
32931 659
32932 659
32933 659
32934 659
32935 659
32936 659
32937 659
32938 659
32939 659
32940 659
32941 659
32942 659
32943 659
32944 659
32945 659
32946 659
32947 659
32948 659
32949 659
32950 659
32951 660
32952 660
32953 660
32954 660
32955 660
32956 660
32957 660
32958 660
32959 660
32960 660
32961 660
32962 660
32963 660
32964 660
32965 660
32966 660
32967 660
32968 660
32969 660
32970 660
32971 660
32972 660
32973 660
32974 660
32975 660
32976 660
32977 660
32978 660
32979 660
32980 660
32981 660
32982 660
32983 660
32984 660
32985 660
32986 660
32987 660
32988 660
32989 660
32990 660
32991 660
32992 660
32993 660
32994 660
32995 660
32996 660
32997 660
32998 660
32999 660
33000 660
33001 661
33002 661
33003 661
33004 661
33005 661
33006 661
33007 661
33008 661
33009 661
33010 661
33011 661
33012 661
33013 661
33014 661
33015 661
33016 661
33017 661
33018 661
33019 661
33020 661
33021 661
33022 661
33023 661
33024 661
33025 661
33026 661
33027 661
33028 661
33029 661
33030 661
33031 661
33032 661
33033 661
33034 661
33035 661
33036 661
33037 661
33038 661
33039 661
33040 661
33041 661
33042 661
33043 661
33044 661
33045 661
33046 661
33047 661
33048 661
33049 661
33050 661
33051 662
33052 662
33053 662
33054 662
33055 662
33056 662
33057 662
33058 662
33059 662
33060 662
33061 662
33062 662
33063 662
33064 662
33065 662
33066 662
33067 662
33068 662
33069 662
33070 662
33071 662
33072 662
33073 662
33074 662
33075 662
33076 662
33077 662
33078 662
33079 662
33080 662
33081 662
33082 662
33083 662
33084 662
33085 662
33086 662
33087 662
33088 662
33089 662
33090 662
33091 662
33092 662
33093 662
33094 662
33095 662
33096 662
33097 662
33098 662
33099 662
33100 662
33101 663
33102 663
33103 663
33104 663
33105 663
33106 663
33107 663
33108 663
33109 663
33110 663
33111 663
33112 663
33113 663
33114 663
33115 663
33116 663
33117 663
33118 663
33119 663
33120 663
33121 663
33122 663
33123 663
33124 663
33125 663
33126 663
33127 663
33128 663
33129 663
33130 663
33131 663
33132 663
33133 663
33134 663
33135 663
33136 663
33137 663
33138 663
33139 663
33140 663
33141 663
33142 663
33143 663
33144 663
33145 663
33146 663
33147 663
33148 663
33149 663
33150 663
33151 664
33152 664
33153 664
33154 664
33155 664
33156 664
33157 664
33158 664
33159 664
33160 664
33161 664
33162 664
33163 664
33164 664
33165 664
33166 664
33167 664
33168 664
33169 664
33170 664
33171 664
33172 664
33173 664
33174 664
33175 664
33176 664
33177 664
33178 664
33179 664
33180 664
33181 664
33182 664
33183 664
33184 664
33185 664
33186 664
33187 664
33188 664
33189 664
33190 664
33191 664
33192 664
33193 664
33194 664
33195 664
33196 664
33197 664
33198 664
33199 664
33200 664
33201 665
33202 665
33203 665
33204 665
33205 665
33206 665
33207 665
33208 665
33209 665
33210 665
33211 665
33212 665
33213 665
33214 665
33215 665
33216 665
33217 665
33218 665
33219 665
33220 665
33221 665
33222 665
33223 665
33224 665
33225 665
33226 665
33227 665
33228 665
33229 665
33230 665
33231 665
33232 665
33233 665
33234 665
33235 665
33236 665
33237 665
33238 665
33239 665
33240 665
33241 665
33242 665
33243 665
33244 665
33245 665
33246 665
33247 665
33248 665
33249 665
33250 665
33251 666
33252 666
33253 666
33254 666
33255 666
33256 666
33257 666
33258 666
33259 666
33260 666
33261 666
33262 666
33263 666
33264 666
33265 666
33266 666
33267 666
33268 666
33269 666
33270 666
33271 666
33272 666
33273 666
33274 666
33275 666
33276 666
33277 666
33278 666
33279 666
33280 666
33281 666
33282 666
33283 666
33284 666
33285 666
33286 666
33287 666
33288 666
33289 666
33290 666
33291 666
33292 666
33293 666
33294 666
33295 666
33296 666
33297 666
33298 666
33299 666
33300 666
33301 667
33302 667
33303 667
33304 667
33305 667
33306 667
33307 667
33308 667
33309 667
33310 667
33311 667
33312 667
33313 667
33314 667
33315 667
33316 667
33317 667
33318 667
33319 667
33320 667
33321 667
33322 667
33323 667
33324 667
33325 667
33326 667
33327 667
33328 667
33329 667
33330 667
33331 667
33332 667
33333 667
33334 667
33335 667
33336 667
33337 667
33338 667
33339 667
33340 667
33341 667
33342 667
33343 667
33344 667
33345 667
33346 667
33347 667
33348 667
33349 667
33350 667
33351 668
33352 668
33353 668
33354 668
33355 668
33356 668
33357 668
33358 668
33359 668
33360 668
33361 668
33362 668
33363 668
33364 668
33365 668
33366 668
33367 668
33368 668
33369 668
33370 668
33371 668
33372 668
33373 668
33374 668
33375 668
33376 668
33377 668
33378 668
33379 668
33380 668
33381 668
33382 668
33383 668
33384 668
33385 668
33386 668
33387 668
33388 668
33389 668
33390 668
33391 668
33392 668
33393 668
33394 668
33395 668
33396 668
33397 668
33398 668
33399 668
33400 668
33401 669
33402 669
33403 669
33404 669
33405 669
33406 669
33407 669
33408 669
33409 669
33410 669
33411 669
33412 669
33413 669
33414 669
33415 669
33416 669
33417 669
33418 669
33419 669
33420 669
33421 669
33422 669
33423 669
33424 669
33425 669
33426 669
33427 669
33428 669
33429 669
33430 669
33431 669
33432 669
33433 669
33434 669
33435 669
33436 669
33437 669
33438 669
33439 669
33440 669
33441 669
33442 669
33443 669
33444 669
33445 669
33446 669
33447 669
33448 669
33449 669
33450 669
33451 670
33452 670
33453 670
33454 670
33455 670
33456 670
33457 670
33458 670
33459 670
33460 670
33461 670
33462 670
33463 670
33464 670
33465 670
33466 670
33467 670
33468 670
33469 670
33470 670
33471 670
33472 670
33473 670
33474 670
33475 670
33476 670
33477 670
33478 670
33479 670
33480 670
33481 670
33482 670
33483 670
33484 670
33485 670
33486 670
33487 670
33488 670
33489 670
33490 670
33491 670
33492 670
33493 670
33494 670
33495 670
33496 670
33497 670
33498 670
33499 670
33500 670
33501 671
33502 671
33503 671
33504 671
33505 671
33506 671
33507 671
33508 671
33509 671
33510 671
33511 671
33512 671
33513 671
33514 671
33515 671
33516 671
33517 671
33518 671
33519 671
33520 671
33521 671
33522 671
33523 671
33524 671
33525 671
33526 671
33527 671
33528 671
33529 671
33530 671
33531 671
33532 671
33533 671
33534 671
33535 671
33536 671
33537 671
33538 671
33539 671
33540 671
33541 671
33542 671
33543 671
33544 671
33545 671
33546 671
33547 671
33548 671
33549 671
33550 671
33551 672
33552 672
33553 672
33554 672
33555 672
33556 672
33557 672
33558 672
33559 672
33560 672
33561 672
33562 672
33563 672
33564 672
33565 672
33566 672
33567 672
33568 672
33569 672
33570 672
33571 672
33572 672
33573 672
33574 672
33575 672
33576 672
33577 672
33578 672
33579 672
33580 672
33581 672
33582 672
33583 672
33584 672
33585 672
33586 672
33587 672
33588 672
33589 672
33590 672
33591 672
33592 672
33593 672
33594 672
33595 672
33596 672
33597 672
33598 672
33599 672
33600 672
33601 673
33602 673
33603 673
33604 673
33605 673
33606 673
33607 673
33608 673
33609 673
33610 673
33611 673
33612 673
33613 673
33614 673
33615 673
33616 673
33617 673
33618 673
33619 673
33620 673
33621 673
33622 673
33623 673
33624 673
33625 673
33626 673
33627 673
33628 673
33629 673
33630 673
33631 673
33632 673
33633 673
33634 673
33635 673
33636 673
33637 673
33638 673
33639 673
33640 673
33641 673
33642 673
33643 673
33644 673
33645 673
33646 673
33647 673
33648 673
33649 673
33650 673
33651 674
33652 674
33653 674
33654 674
33655 674
33656 674
33657 674
33658 674
33659 674
33660 674
33661 674
33662 674
33663 674
33664 674
33665 674
33666 674
33667 674
33668 674
33669 674
33670 674
33671 674
33672 674
33673 674
33674 674
33675 674
33676 674
33677 674
33678 674
33679 674
33680 674
33681 674
33682 674
33683 674
33684 674
33685 674
33686 674
33687 674
33688 674
33689 674
33690 674
33691 674
33692 674
33693 674
33694 674
33695 674
33696 674
33697 674
33698 674
33699 674
33700 674
33701 675
33702 675
33703 675
33704 675
33705 675
33706 675
33707 675
33708 675
33709 675
33710 675
33711 675
33712 675
33713 675
33714 675
33715 675
33716 675
33717 675
33718 675
33719 675
33720 675
33721 675
33722 675
33723 675
33724 675
33725 675
33726 675
33727 675
33728 675
33729 675
33730 675
33731 675
33732 675
33733 675
33734 675
33735 675
33736 675
33737 675
33738 675
33739 675
33740 675
33741 675
33742 675
33743 675
33744 675
33745 675
33746 675
33747 675
33748 675
33749 675
33750 675
33751 676
33752 676
33753 676
33754 676
33755 676
33756 676
33757 676
33758 676
33759 676
33760 676
33761 676
33762 676
33763 676
33764 676
33765 676
33766 676
33767 676
33768 676
33769 676
33770 676
33771 676
33772 676
33773 676
33774 676
33775 676
33776 676
33777 676
33778 676
33779 676
33780 676
33781 676
33782 676
33783 676
33784 676
33785 676
33786 676
33787 676
33788 676
33789 676
33790 676
33791 676
33792 676
33793 676
33794 676
33795 676
33796 676
33797 676
33798 676
33799 676
33800 676
33801 677
33802 677
33803 677
33804 677
33805 677
33806 677
33807 677
33808 677
33809 677
33810 677
33811 677
33812 677
33813 677
33814 677
33815 677
33816 677
33817 677
33818 677
33819 677
33820 677
33821 677
33822 677
33823 677
33824 677
33825 677
33826 677
33827 677
33828 677
33829 677
33830 677
33831 677
33832 677
33833 677
33834 677
33835 677
33836 677
33837 677
33838 677
33839 677
33840 677
33841 677
33842 677
33843 677
33844 677
33845 677
33846 677
33847 677
33848 677
33849 677
33850 677
33851 678
33852 678
33853 678
33854 678
33855 678
33856 678
33857 678
33858 678
33859 678
33860 678
33861 678
33862 678
33863 678
33864 678
33865 678
33866 678
33867 678
33868 678
33869 678
33870 678
33871 678
33872 678
33873 678
33874 678
33875 678
33876 678
33877 678
33878 678
33879 678
33880 678
33881 678
33882 678
33883 678
33884 678
33885 678
33886 678
33887 678
33888 678
33889 678
33890 678
33891 678
33892 678
33893 678
33894 678
33895 678
33896 678
33897 678
33898 678
33899 678
33900 678
33901 679
33902 679
33903 679
33904 679
33905 679
33906 679
33907 679
33908 679
33909 679
33910 679
33911 679
33912 679
33913 679
33914 679
33915 679
33916 679
33917 679
33918 679
33919 679
33920 679
33921 679
33922 679
33923 679
33924 679
33925 679
33926 679
33927 679
33928 679
33929 679
33930 679
33931 679
33932 679
33933 679
33934 679
33935 679
33936 679
33937 679
33938 679
33939 679
33940 679
33941 679
33942 679
33943 679
33944 679
33945 679
33946 679
33947 679
33948 679
33949 679
33950 679
33951 680
33952 680
33953 680
33954 680
33955 680
33956 680
33957 680
33958 680
33959 680
33960 680
33961 680
33962 680
33963 680
33964 680
33965 680
33966 680
33967 680
33968 680
33969 680
33970 680
33971 680
33972 680
33973 680
33974 680
33975 680
33976 680
33977 680
33978 680
33979 680
33980 680
33981 680
33982 680
33983 680
33984 680
33985 680
33986 680
33987 680
33988 680
33989 680
33990 680
33991 680
33992 680
33993 680
33994 680
33995 680
33996 680
33997 680
33998 680
33999 680
34000 680
34001 681
34002 681
34003 681
34004 681
34005 681
34006 681
34007 681
34008 681
34009 681
34010 681
34011 681
34012 681
34013 681
34014 681
34015 681
34016 681
34017 681
34018 681
34019 681
34020 681
34021 681
34022 681
34023 681
34024 681
34025 681
34026 681
34027 681
34028 681
34029 681
34030 681
34031 681
34032 681
34033 681
34034 681
34035 681
34036 681
34037 681
34038 681
34039 681
34040 681
34041 681
34042 681
34043 681
34044 681
34045 681
34046 681
34047 681
34048 681
34049 681
34050 681
34051 682
34052 682
34053 682
34054 682
34055 682
34056 682
34057 682
34058 682
34059 682
34060 682
34061 682
34062 682
34063 682
34064 682
34065 682
34066 682
34067 682
34068 682
34069 682
34070 682
34071 682
34072 682
34073 682
34074 682
34075 682
34076 682
34077 682
34078 682
34079 682
34080 682
34081 682
34082 682
34083 682
34084 682
34085 682
34086 682
34087 682
34088 682
34089 682
34090 682
34091 682
34092 682
34093 682
34094 682
34095 682
34096 682
34097 682
34098 682
34099 682
34100 682
34101 683
34102 683
34103 683
34104 683
34105 683
34106 683
34107 683
34108 683
34109 683
34110 683
34111 683
34112 683
34113 683
34114 683
34115 683
34116 683
34117 683
34118 683
34119 683
34120 683
34121 683
34122 683
34123 683
34124 683
34125 683
34126 683
34127 683
34128 683
34129 683
34130 683
34131 683
34132 683
34133 683
34134 683
34135 683
34136 683
34137 683
34138 683
34139 683
34140 683
34141 683
34142 683
34143 683
34144 683
34145 683
34146 683
34147 683
34148 683
34149 683
34150 683
34151 684
34152 684
34153 684
34154 684
34155 684
34156 684
34157 684
34158 684
34159 684
34160 684
34161 684
34162 684
34163 684
34164 684
34165 684
34166 684
34167 684
34168 684
34169 684
34170 684
34171 684
34172 684
34173 684
34174 684
34175 684
34176 684
34177 684
34178 684
34179 684
34180 684
34181 684
34182 684
34183 684
34184 684
34185 684
34186 684
34187 684
34188 684
34189 684
34190 684
34191 684
34192 684
34193 684
34194 684
34195 684
34196 684
34197 684
34198 684
34199 684
34200 684
34201 685
34202 685
34203 685
34204 685
34205 685
34206 685
34207 685
34208 685
34209 685
34210 685
34211 685
34212 685
34213 685
34214 685
34215 685
34216 685
34217 685
34218 685
34219 685
34220 685
34221 685
34222 685
34223 685
34224 685
34225 685
34226 685
34227 685
34228 685
34229 685
34230 685
34231 685
34232 685
34233 685
34234 685
34235 685
34236 685
34237 685
34238 685
34239 685
34240 685
34241 685
34242 685
34243 685
34244 685
34245 685
34246 685
34247 685
34248 685
34249 685
34250 685
34251 686
34252 686
34253 686
34254 686
34255 686
34256 686
34257 686
34258 686
34259 686
34260 686
34261 686
34262 686
34263 686
34264 686
34265 686
34266 686
34267 686
34268 686
34269 686
34270 686
34271 686
34272 686
34273 686
34274 686
34275 686
34276 686
34277 686
34278 686
34279 686
34280 686
34281 686
34282 686
34283 686
34284 686
34285 686
34286 686
34287 686
34288 686
34289 686
34290 686
34291 686
34292 686
34293 686
34294 686
34295 686
34296 686
34297 686
34298 686
34299 686
34300 686
34301 687
34302 687
34303 687
34304 687
34305 687
34306 687
34307 687
34308 687
34309 687
34310 687
34311 687
34312 687
34313 687
34314 687
34315 687
34316 687
34317 687
34318 687
34319 687
34320 687
34321 687
34322 687
34323 687
34324 687
34325 687
34326 687
34327 687
34328 687
34329 687
34330 687
34331 687
34332 687
34333 687
34334 687
34335 687
34336 687
34337 687
34338 687
34339 687
34340 687
34341 687
34342 687
34343 687
34344 687
34345 687
34346 687
34347 687
34348 687
34349 687
34350 687
34351 688
34352 688
34353 688
34354 688
34355 688
34356 688
34357 688
34358 688
34359 688
34360 688
34361 688
34362 688
34363 688
34364 688
34365 688
34366 688
34367 688
34368 688
34369 688
34370 688
34371 688
34372 688
34373 688
34374 688
34375 688
34376 688
34377 688
34378 688
34379 688
34380 688
34381 688
34382 688
34383 688
34384 688
34385 688
34386 688
34387 688
34388 688
34389 688
34390 688
34391 688
34392 688
34393 688
34394 688
34395 688
34396 688
34397 688
34398 688
34399 688
34400 688
34401 689
34402 689
34403 689
34404 689
34405 689
34406 689
34407 689
34408 689
34409 689
34410 689
34411 689
34412 689
34413 689
34414 689
34415 689
34416 689
34417 689
34418 689
34419 689
34420 689
34421 689
34422 689
34423 689
34424 689
34425 689
34426 689
34427 689
34428 689
34429 689
34430 689
34431 689
34432 689
34433 689
34434 689
34435 689
34436 689
34437 689
34438 689
34439 689
34440 689
34441 689
34442 689
34443 689
34444 689
34445 689
34446 689
34447 689
34448 689
34449 689
34450 689
34451 690
34452 690
34453 690
34454 690
34455 690
34456 690
34457 690
34458 690
34459 690
34460 690
34461 690
34462 690
34463 690
34464 690
34465 690
34466 690
34467 690
34468 690
34469 690
34470 690
34471 690
34472 690
34473 690
34474 690
34475 690
34476 690
34477 690
34478 690
34479 690
34480 690
34481 690
34482 690
34483 690
34484 690
34485 690
34486 690
34487 690
34488 690
34489 690
34490 690
34491 690
34492 690
34493 690
34494 690
34495 690
34496 690
34497 690
34498 690
34499 690
34500 690
34501 691
34502 691
34503 691
34504 691
34505 691
34506 691
34507 691
34508 691
34509 691
34510 691
34511 691
34512 691
34513 691
34514 691
34515 691
34516 691
34517 691
34518 691
34519 691
34520 691
34521 691
34522 691
34523 691
34524 691
34525 691
34526 691
34527 691
34528 691
34529 691
34530 691
34531 691
34532 691
34533 691
34534 691
34535 691
34536 691
34537 691
34538 691
34539 691
34540 691
34541 691
34542 691
34543 691
34544 691
34545 691
34546 691
34547 691
34548 691
34549 691
34550 691
34551 692
34552 692
34553 692
34554 692
34555 692
34556 692
34557 692
34558 692
34559 692
34560 692
34561 692
34562 692
34563 692
34564 692
34565 692
34566 692
34567 692
34568 692
34569 692
34570 692
34571 692
34572 692
34573 692
34574 692
34575 692
34576 692
34577 692
34578 692
34579 692
34580 692
34581 692
34582 692
34583 692
34584 692
34585 692
34586 692
34587 692
34588 692
34589 692
34590 692
34591 692
34592 692
34593 692
34594 692
34595 692
34596 692
34597 692
34598 692
34599 692
34600 692
34601 693
34602 693
34603 693
34604 693
34605 693
34606 693
34607 693
34608 693
34609 693
34610 693
34611 693
34612 693
34613 693
34614 693
34615 693
34616 693
34617 693
34618 693
34619 693
34620 693
34621 693
34622 693
34623 693
34624 693
34625 693
34626 693
34627 693
34628 693
34629 693
34630 693
34631 693
34632 693
34633 693
34634 693
34635 693
34636 693
34637 693
34638 693
34639 693
34640 693
34641 693
34642 693
34643 693
34644 693
34645 693
34646 693
34647 693
34648 693
34649 693
34650 693
34651 694
34652 694
34653 694
34654 694
34655 694
34656 694
34657 694
34658 694
34659 694
34660 694
34661 694
34662 694
34663 694
34664 694
34665 694
34666 694
34667 694
34668 694
34669 694
34670 694
34671 694
34672 694
34673 694
34674 694
34675 694
34676 694
34677 694
34678 694
34679 694
34680 694
34681 694
34682 694
34683 694
34684 694
34685 694
34686 694
34687 694
34688 694
34689 694
34690 694
34691 694
34692 694
34693 694
34694 694
34695 694
34696 694
34697 694
34698 694
34699 694
34700 694
34701 695
34702 695
34703 695
34704 695
34705 695
34706 695
34707 695
34708 695
34709 695
34710 695
34711 695
34712 695
34713 695
34714 695
34715 695
34716 695
34717 695
34718 695
34719 695
34720 695
34721 695
34722 695
34723 695
34724 695
34725 695
34726 695
34727 695
34728 695
34729 695
34730 695
34731 695
34732 695
34733 695
34734 695
34735 695
34736 695
34737 695
34738 695
34739 695
34740 695
34741 695
34742 695
34743 695
34744 695
34745 695
34746 695
34747 695
34748 695
34749 695
34750 695
34751 696
34752 696
34753 696
34754 696
34755 696
34756 696
34757 696
34758 696
34759 696
34760 696
34761 696
34762 696
34763 696
34764 696
34765 696
34766 696
34767 696
34768 696
34769 696
34770 696
34771 696
34772 696
34773 696
34774 696
34775 696
34776 696
34777 696
34778 696
34779 696
34780 696
34781 696
34782 696
34783 696
34784 696
34785 696
34786 696
34787 696
34788 696
34789 696
34790 696
34791 696
34792 696
34793 696
34794 696
34795 696
34796 696
34797 696
34798 696
34799 696
34800 696
34801 697
34802 697
34803 697
34804 697
34805 697
34806 697
34807 697
34808 697
34809 697
34810 697
34811 697
34812 697
34813 697
34814 697
34815 697
34816 697
34817 697
34818 697
34819 697
34820 697
34821 697
34822 697
34823 697
34824 697
34825 697
34826 697
34827 697
34828 697
34829 697
34830 697
34831 697
34832 697
34833 697
34834 697
34835 697
34836 697
34837 697
34838 697
34839 697
34840 697
34841 697
34842 697
34843 697
34844 697
34845 697
34846 697
34847 697
34848 697
34849 697
34850 697
34851 698
34852 698
34853 698
34854 698
34855 698
34856 698
34857 698
34858 698
34859 698
34860 698
34861 698
34862 698
34863 698
34864 698
34865 698
34866 698
34867 698
34868 698
34869 698
34870 698
34871 698
34872 698
34873 698
34874 698
34875 698
34876 698
34877 698
34878 698
34879 698
34880 698
34881 698
34882 698
34883 698
34884 698
34885 698
34886 698
34887 698
34888 698
34889 698
34890 698
34891 698
34892 698
34893 698
34894 698
34895 698
34896 698
34897 698
34898 698
34899 698
34900 698
34901 699
34902 699
34903 699
34904 699
34905 699
34906 699
34907 699
34908 699
34909 699
34910 699
34911 699
34912 699
34913 699
34914 699
34915 699
34916 699
34917 699
34918 699
34919 699
34920 699
34921 699
34922 699
34923 699
34924 699
34925 699
34926 699
34927 699
34928 699
34929 699
34930 699
34931 699
34932 699
34933 699
34934 699
34935 699
34936 699
34937 699
34938 699
34939 699
34940 699
34941 699
34942 699
34943 699
34944 699
34945 699
34946 699
34947 699
34948 699
34949 699
34950 699
34951 700
34952 700
34953 700
34954 700
34955 700
34956 700
34957 700
34958 700
34959 700
34960 700
34961 700
34962 700
34963 700
34964 700
34965 700
34966 700
34967 700
34968 700
34969 700
34970 700
34971 700
34972 700
34973 700
34974 700
34975 700
34976 700
34977 700
34978 700
34979 700
34980 700
34981 700
34982 700
34983 700
34984 700
34985 700
34986 700
34987 700
34988 700
34989 700
34990 700
34991 700
34992 700
34993 700
34994 700
34995 700
34996 700
34997 700
34998 700
34999 700
35000 700
35001 701
35002 701
35003 701
35004 701
35005 701
35006 701
35007 701
35008 701
35009 701
35010 701
35011 701
35012 701
35013 701
35014 701
35015 701
35016 701
35017 701
35018 701
35019 701
35020 701
35021 701
35022 701
35023 701
35024 701
35025 701
35026 701
35027 701
35028 701
35029 701
35030 701
35031 701
35032 701
35033 701
35034 701
35035 701
35036 701
35037 701
35038 701
35039 701
35040 701
35041 701
35042 701
35043 701
35044 701
35045 701
35046 701
35047 701
35048 701
35049 701
35050 701
35051 702
35052 702
35053 702
35054 702
35055 702
35056 702
35057 702
35058 702
35059 702
35060 702
35061 702
35062 702
35063 702
35064 702
35065 702
35066 702
35067 702
35068 702
35069 702
35070 702
35071 702
35072 702
35073 702
35074 702
35075 702
35076 702
35077 702
35078 702
35079 702
35080 702
35081 702
35082 702
35083 702
35084 702
35085 702
35086 702
35087 702
35088 702
35089 702
35090 702
35091 702
35092 702
35093 702
35094 702
35095 702
35096 702
35097 702
35098 702
35099 702
35100 702
35101 703
35102 703
35103 703
35104 703
35105 703
35106 703
35107 703
35108 703
35109 703
35110 703
35111 703
35112 703
35113 703
35114 703
35115 703
35116 703
35117 703
35118 703
35119 703
35120 703
35121 703
35122 703
35123 703
35124 703
35125 703
35126 703
35127 703
35128 703
35129 703
35130 703
35131 703
35132 703
35133 703
35134 703
35135 703
35136 703
35137 703
35138 703
35139 703
35140 703
35141 703
35142 703
35143 703
35144 703
35145 703
35146 703
35147 703
35148 703
35149 703
35150 703
35151 704
35152 704
35153 704
35154 704
35155 704
35156 704
35157 704
35158 704
35159 704
35160 704
35161 704
35162 704
35163 704
35164 704
35165 704
35166 704
35167 704
35168 704
35169 704
35170 704
35171 704
35172 704
35173 704
35174 704
35175 704
35176 704
35177 704
35178 704
35179 704
35180 704
35181 704
35182 704
35183 704
35184 704
35185 704
35186 704
35187 704
35188 704
35189 704
35190 704
35191 704
35192 704
35193 704
35194 704
35195 704
35196 704
35197 704
35198 704
35199 704
35200 704
35201 705
35202 705
35203 705
35204 705
35205 705
35206 705
35207 705
35208 705
35209 705
35210 705
35211 705
35212 705
35213 705
35214 705
35215 705
35216 705
35217 705
35218 705
35219 705
35220 705
35221 705
35222 705
35223 705
35224 705
35225 705
35226 705
35227 705
35228 705
35229 705
35230 705
35231 705
35232 705
35233 705
35234 705
35235 705
35236 705
35237 705
35238 705
35239 705
35240 705
35241 705
35242 705
35243 705
35244 705
35245 705
35246 705
35247 705
35248 705
35249 705
35250 705
35251 706
35252 706
35253 706
35254 706
35255 706
35256 706
35257 706
35258 706
35259 706
35260 706
35261 706
35262 706
35263 706
35264 706
35265 706
35266 706
35267 706
35268 706
35269 706
35270 706
35271 706
35272 706
35273 706
35274 706
35275 706
35276 706
35277 706
35278 706
35279 706
35280 706
35281 706
35282 706
35283 706
35284 706
35285 706
35286 706
35287 706
35288 706
35289 706
35290 706
35291 706
35292 706
35293 706
35294 706
35295 706
35296 706
35297 706
35298 706
35299 706
35300 706
35301 707
35302 707
35303 707
35304 707
35305 707
35306 707
35307 707
35308 707
35309 707
35310 707
35311 707
35312 707
35313 707
35314 707
35315 707
35316 707
35317 707
35318 707
35319 707
35320 707
35321 707
35322 707
35323 707
35324 707
35325 707
35326 707
35327 707
35328 707
35329 707
35330 707
35331 707
35332 707
35333 707
35334 707
35335 707
35336 707
35337 707
35338 707
35339 707
35340 707
35341 707
35342 707
35343 707
35344 707
35345 707
35346 707
35347 707
35348 707
35349 707
35350 707
35351 708
35352 708
35353 708
35354 708
35355 708
35356 708
35357 708
35358 708
35359 708
35360 708
35361 708
35362 708
35363 708
35364 708
35365 708
35366 708
35367 708
35368 708
35369 708
35370 708
35371 708
35372 708
35373 708
35374 708
35375 708
35376 708
35377 708
35378 708
35379 708
35380 708
35381 708
35382 708
35383 708
35384 708
35385 708
35386 708
35387 708
35388 708
35389 708
35390 708
35391 708
35392 708
35393 708
35394 708
35395 708
35396 708
35397 708
35398 708
35399 708
35400 708
35401 709
35402 709
35403 709
35404 709
35405 709
35406 709
35407 709
35408 709
35409 709
35410 709
35411 709
35412 709
35413 709
35414 709
35415 709
35416 709
35417 709
35418 709
35419 709
35420 709
35421 709
35422 709
35423 709
35424 709
35425 709
35426 709
35427 709
35428 709
35429 709
35430 709
35431 709
35432 709
35433 709
35434 709
35435 709
35436 709
35437 709
35438 709
35439 709
35440 709
35441 709
35442 709
35443 709
35444 709
35445 709
35446 709
35447 709
35448 709
35449 709
35450 709
35451 710
35452 710
35453 710
35454 710
35455 710
35456 710
35457 710
35458 710
35459 710
35460 710
35461 710
35462 710
35463 710
35464 710
35465 710
35466 710
35467 710
35468 710
35469 710
35470 710
35471 710
35472 710
35473 710
35474 710
35475 710
35476 710
35477 710
35478 710
35479 710
35480 710
35481 710
35482 710
35483 710
35484 710
35485 710
35486 710
35487 710
35488 710
35489 710
35490 710
35491 710
35492 710
35493 710
35494 710
35495 710
35496 710
35497 710
35498 710
35499 710
35500 710
35501 711
35502 711
35503 711
35504 711
35505 711
35506 711
35507 711
35508 711
35509 711
35510 711
35511 711
35512 711
35513 711
35514 711
35515 711
35516 711
35517 711
35518 711
35519 711
35520 711
35521 711
35522 711
35523 711
35524 711
35525 711
35526 711
35527 711
35528 711
35529 711
35530 711
35531 711
35532 711
35533 711
35534 711
35535 711
35536 711
35537 711
35538 711
35539 711
35540 711
35541 711
35542 711
35543 711
35544 711
35545 711
35546 711
35547 711
35548 711
35549 711
35550 711
35551 712
35552 712
35553 712
35554 712
35555 712
35556 712
35557 712
35558 712
35559 712
35560 712
35561 712
35562 712
35563 712
35564 712
35565 712
35566 712
35567 712
35568 712
35569 712
35570 712
35571 712
35572 712
35573 712
35574 712
35575 712
35576 712
35577 712
35578 712
35579 712
35580 712
35581 712
35582 712
35583 712
35584 712
35585 712
35586 712
35587 712
35588 712
35589 712
35590 712
35591 712
35592 712
35593 712
35594 712
35595 712
35596 712
35597 712
35598 712
35599 712
35600 712
35601 713
35602 713
35603 713
35604 713
35605 713
35606 713
35607 713
35608 713
35609 713
35610 713
35611 713
35612 713
35613 713
35614 713
35615 713
35616 713
35617 713
35618 713
35619 713
35620 713
35621 713
35622 713
35623 713
35624 713
35625 713
35626 713
35627 713
35628 713
35629 713
35630 713
35631 713
35632 713
35633 713
35634 713
35635 713
35636 713
35637 713
35638 713
35639 713
35640 713
35641 713
35642 713
35643 713
35644 713
35645 713
35646 713
35647 713
35648 713
35649 713
35650 713
35651 714
35652 714
35653 714
35654 714
35655 714
35656 714
35657 714
35658 714
35659 714
35660 714
35661 714
35662 714
35663 714
35664 714
35665 714
35666 714
35667 714
35668 714
35669 714
35670 714
35671 714
35672 714
35673 714
35674 714
35675 714
35676 714
35677 714
35678 714
35679 714
35680 714
35681 714
35682 714
35683 714
35684 714
35685 714
35686 714
35687 714
35688 714
35689 714
35690 714
35691 714
35692 714
35693 714
35694 714
35695 714
35696 714
35697 714
35698 714
35699 714
35700 714
35701 715
35702 715
35703 715
35704 715
35705 715
35706 715
35707 715
35708 715
35709 715
35710 715
35711 715
35712 715
35713 715
35714 715
35715 715
35716 715
35717 715
35718 715
35719 715
35720 715
35721 715
35722 715
35723 715
35724 715
35725 715
35726 715
35727 715
35728 715
35729 715
35730 715
35731 715
35732 715
35733 715
35734 715
35735 715
35736 715
35737 715
35738 715
35739 715
35740 715
35741 715
35742 715
35743 715
35744 715
35745 715
35746 715
35747 715
35748 715
35749 715
35750 715
35751 716
35752 716
35753 716
35754 716
35755 716
35756 716
35757 716
35758 716
35759 716
35760 716
35761 716
35762 716
35763 716
35764 716
35765 716
35766 716
35767 716
35768 716
35769 716
35770 716
35771 716
35772 716
35773 716
35774 716
35775 716
35776 716
35777 716
35778 716
35779 716
35780 716
35781 716
35782 716
35783 716
35784 716
35785 716
35786 716
35787 716
35788 716
35789 716
35790 716
35791 716
35792 716
35793 716
35794 716
35795 716
35796 716
35797 716
35798 716
35799 716
35800 716
35801 717
35802 717
35803 717
35804 717
35805 717
35806 717
35807 717
35808 717
35809 717
35810 717
35811 717
35812 717
35813 717
35814 717
35815 717
35816 717
35817 717
35818 717
35819 717
35820 717
35821 717
35822 717
35823 717
35824 717
35825 717
35826 717
35827 717
35828 717
35829 717
35830 717
35831 717
35832 717
35833 717
35834 717
35835 717
35836 717
35837 717
35838 717
35839 717
35840 717
35841 717
35842 717
35843 717
35844 717
35845 717
35846 717
35847 717
35848 717
35849 717
35850 717
35851 718
35852 718
35853 718
35854 718
35855 718
35856 718
35857 718
35858 718
35859 718
35860 718
35861 718
35862 718
35863 718
35864 718
35865 718
35866 718
35867 718
35868 718
35869 718
35870 718
35871 718
35872 718
35873 718
35874 718
35875 718
35876 718
35877 718
35878 718
35879 718
35880 718
35881 718
35882 718
35883 718
35884 718
35885 718
35886 718
35887 718
35888 718
35889 718
35890 718
35891 718
35892 718
35893 718
35894 718
35895 718
35896 718
35897 718
35898 718
35899 718
35900 718
35901 719
35902 719
35903 719
35904 719
35905 719
35906 719
35907 719
35908 719
35909 719
35910 719
35911 719
35912 719
35913 719
35914 719
35915 719
35916 719
35917 719
35918 719
35919 719
35920 719
35921 719
35922 719
35923 719
35924 719
35925 719
35926 719
35927 719
35928 719
35929 719
35930 719
35931 719
35932 719
35933 719
35934 719
35935 719
35936 719
35937 719
35938 719
35939 719
35940 719
35941 719
35942 719
35943 719
35944 719
35945 719
35946 719
35947 719
35948 719
35949 719
35950 719
35951 720
35952 720
35953 720
35954 720
35955 720
35956 720
35957 720
35958 720
35959 720
35960 720
35961 720
35962 720
35963 720
35964 720
35965 720
35966 720
35967 720
35968 720
35969 720
35970 720
35971 720
35972 720
35973 720
35974 720
35975 720
35976 720
35977 720
35978 720
35979 720
35980 720
35981 720
35982 720
35983 720
35984 720
35985 720
35986 720
35987 720
35988 720
35989 720
35990 720
35991 720
35992 720
35993 720
35994 720
35995 720
35996 720
35997 720
35998 720
35999 720
36000 720
36001 721
36002 721
36003 721
36004 721
36005 721
36006 721
36007 721
36008 721
36009 721
36010 721
36011 721
36012 721
36013 721
36014 721
36015 721
36016 721
36017 721
36018 721
36019 721
36020 721
36021 721
36022 721
36023 721
36024 721
36025 721
36026 721
36027 721
36028 721
36029 721
36030 721
36031 721
36032 721
36033 721
36034 721
36035 721
36036 721
36037 721
36038 721
36039 721
36040 721
36041 721
36042 721
36043 721
36044 721
36045 721
36046 721
36047 721
36048 721
36049 721
36050 721
36051 722
36052 722
36053 722
36054 722
36055 722
36056 722
36057 722
36058 722
36059 722
36060 722
36061 722
36062 722
36063 722
36064 722
36065 722
36066 722
36067 722
36068 722
36069 722
36070 722
36071 722
36072 722
36073 722
36074 722
36075 722
36076 722
36077 722
36078 722
36079 722
36080 722
36081 722
36082 722
36083 722
36084 722
36085 722
36086 722
36087 722
36088 722
36089 722
36090 722
36091 722
36092 722
36093 722
36094 722
36095 722
36096 722
36097 722
36098 722
36099 722
36100 722
36101 723
36102 723
36103 723
36104 723
36105 723
36106 723
36107 723
36108 723
36109 723
36110 723
36111 723
36112 723
36113 723
36114 723
36115 723
36116 723
36117 723
36118 723
36119 723
36120 723
36121 723
36122 723
36123 723
36124 723
36125 723
36126 723
36127 723
36128 723
36129 723
36130 723
36131 723
36132 723
36133 723
36134 723
36135 723
36136 723
36137 723
36138 723
36139 723
36140 723
36141 723
36142 723
36143 723
36144 723
36145 723
36146 723
36147 723
36148 723
36149 723
36150 723
36151 724
36152 724
36153 724
36154 724
36155 724
36156 724
36157 724
36158 724
36159 724
36160 724
36161 724
36162 724
36163 724
36164 724
36165 724
36166 724
36167 724
36168 724
36169 724
36170 724
36171 724
36172 724
36173 724
36174 724
36175 724
36176 724
36177 724
36178 724
36179 724
36180 724
36181 724
36182 724
36183 724
36184 724
36185 724
36186 724
36187 724
36188 724
36189 724
36190 724
36191 724
36192 724
36193 724
36194 724
36195 724
36196 724
36197 724
36198 724
36199 724
36200 724
36201 725
36202 725
36203 725
36204 725
36205 725
36206 725
36207 725
36208 725
36209 725
36210 725
36211 725
36212 725
36213 725
36214 725
36215 725
36216 725
36217 725
36218 725
36219 725
36220 725
36221 725
36222 725
36223 725
36224 725
36225 725
36226 725
36227 725
36228 725
36229 725
36230 725
36231 725
36232 725
36233 725
36234 725
36235 725
36236 725
36237 725
36238 725
36239 725
36240 725
36241 725
36242 725
36243 725
36244 725
36245 725
36246 725
36247 725
36248 725
36249 725
36250 725
36251 726
36252 726
36253 726
36254 726
36255 726
36256 726
36257 726
36258 726
36259 726
36260 726
36261 726
36262 726
36263 726
36264 726
36265 726
36266 726
36267 726
36268 726
36269 726
36270 726
36271 726
36272 726
36273 726
36274 726
36275 726
36276 726
36277 726
36278 726
36279 726
36280 726
36281 726
36282 726
36283 726
36284 726
36285 726
36286 726
36287 726
36288 726
36289 726
36290 726
36291 726
36292 726
36293 726
36294 726
36295 726
36296 726
36297 726
36298 726
36299 726
36300 726
36301 727
36302 727
36303 727
36304 727
36305 727
36306 727
36307 727
36308 727
36309 727
36310 727
36311 727
36312 727
36313 727
36314 727
36315 727
36316 727
36317 727
36318 727
36319 727
36320 727
36321 727
36322 727
36323 727
36324 727
36325 727
36326 727
36327 727
36328 727
36329 727
36330 727
36331 727
36332 727
36333 727
36334 727
36335 727
36336 727
36337 727
36338 727
36339 727
36340 727
36341 727
36342 727
36343 727
36344 727
36345 727
36346 727
36347 727
36348 727
36349 727
36350 727
36351 728
36352 728
36353 728
36354 728
36355 728
36356 728
36357 728
36358 728
36359 728
36360 728
36361 728
36362 728
36363 728
36364 728
36365 728
36366 728
36367 728
36368 728
36369 728
36370 728
36371 728
36372 728
36373 728
36374 728
36375 728
36376 728
36377 728
36378 728
36379 728
36380 728
36381 728
36382 728
36383 728
36384 728
36385 728
36386 728
36387 728
36388 728
36389 728
36390 728
36391 728
36392 728
36393 728
36394 728
36395 728
36396 728
36397 728
36398 728
36399 728
36400 728
36401 729
36402 729
36403 729
36404 729
36405 729
36406 729
36407 729
36408 729
36409 729
36410 729
36411 729
36412 729
36413 729
36414 729
36415 729
36416 729
36417 729
36418 729
36419 729
36420 729
36421 729
36422 729
36423 729
36424 729
36425 729
36426 729
36427 729
36428 729
36429 729
36430 729
36431 729
36432 729
36433 729
36434 729
36435 729
36436 729
36437 729
36438 729
36439 729
36440 729
36441 729
36442 729
36443 729
36444 729
36445 729
36446 729
36447 729
36448 729
36449 729
36450 729
36451 730
36452 730
36453 730
36454 730
36455 730
36456 730
36457 730
36458 730
36459 730
36460 730
36461 730
36462 730
36463 730
36464 730
36465 730
36466 730
36467 730
36468 730
36469 730
36470 730
36471 730
36472 730
36473 730
36474 730
36475 730
36476 730
36477 730
36478 730
36479 730
36480 730
36481 730
36482 730
36483 730
36484 730
36485 730
36486 730
36487 730
36488 730
36489 730
36490 730
36491 730
36492 730
36493 730
36494 730
36495 730
36496 730
36497 730
36498 730
36499 730
36500 730
36501 731
36502 731
36503 731
36504 731
36505 731
36506 731
36507 731
36508 731
36509 731
36510 731
36511 731
36512 731
36513 731
36514 731
36515 731
36516 731
36517 731
36518 731
36519 731
36520 731
36521 731
36522 731
36523 731
36524 731
36525 731
36526 731
36527 731
36528 731
36529 731
36530 731
36531 731
36532 731
36533 731
36534 731
36535 731
36536 731
36537 731
36538 731
36539 731
36540 731
36541 731
36542 731
36543 731
36544 731
36545 731
36546 731
36547 731
36548 731
36549 731
36550 731
36551 732
36552 732
36553 732
36554 732
36555 732
36556 732
36557 732
36558 732
36559 732
36560 732
36561 732
36562 732
36563 732
36564 732
36565 732
36566 732
36567 732
36568 732
36569 732
36570 732
36571 732
36572 732
36573 732
36574 732
36575 732
36576 732
36577 732
36578 732
36579 732
36580 732
36581 732
36582 732
36583 732
36584 732
36585 732
36586 732
36587 732
36588 732
36589 732
36590 732
36591 732
36592 732
36593 732
36594 732
36595 732
36596 732
36597 732
36598 732
36599 732
36600 732
36601 733
36602 733
36603 733
36604 733
36605 733
36606 733
36607 733
36608 733
36609 733
36610 733
36611 733
36612 733
36613 733
36614 733
36615 733
36616 733
36617 733
36618 733
36619 733
36620 733
36621 733
36622 733
36623 733
36624 733
36625 733
36626 733
36627 733
36628 733
36629 733
36630 733
36631 733
36632 733
36633 733
36634 733
36635 733
36636 733
36637 733
36638 733
36639 733
36640 733
36641 733
36642 733
36643 733
36644 733
36645 733
36646 733
36647 733
36648 733
36649 733
36650 733
36651 734
36652 734
36653 734
36654 734
36655 734
36656 734
36657 734
36658 734
36659 734
36660 734
36661 734
36662 734
36663 734
36664 734
36665 734
36666 734
36667 734
36668 734
36669 734
36670 734
36671 734
36672 734
36673 734
36674 734
36675 734
36676 734
36677 734
36678 734
36679 734
36680 734
36681 734
36682 734
36683 734
36684 734
36685 734
36686 734
36687 734
36688 734
36689 734
36690 734
36691 734
36692 734
36693 734
36694 734
36695 734
36696 734
36697 734
36698 734
36699 734
36700 734
36701 735
36702 735
36703 735
36704 735
36705 735
36706 735
36707 735
36708 735
36709 735
36710 735
36711 735
36712 735
36713 735
36714 735
36715 735
36716 735
36717 735
36718 735
36719 735
36720 735
36721 735
36722 735
36723 735
36724 735
36725 735
36726 735
36727 735
36728 735
36729 735
36730 735
36731 735
36732 735
36733 735
36734 735
36735 735
36736 735
36737 735
36738 735
36739 735
36740 735
36741 735
36742 735
36743 735
36744 735
36745 735
36746 735
36747 735
36748 735
36749 735
36750 735
36751 736
36752 736
36753 736
36754 736
36755 736
36756 736
36757 736
36758 736
36759 736
36760 736
36761 736
36762 736
36763 736
36764 736
36765 736
36766 736
36767 736
36768 736
36769 736
36770 736
36771 736
36772 736
36773 736
36774 736
36775 736
36776 736
36777 736
36778 736
36779 736
36780 736
36781 736
36782 736
36783 736
36784 736
36785 736
36786 736
36787 736
36788 736
36789 736
36790 736
36791 736
36792 736
36793 736
36794 736
36795 736
36796 736
36797 736
36798 736
36799 736
36800 736
36801 737
36802 737
36803 737
36804 737
36805 737
36806 737
36807 737
36808 737
36809 737
36810 737
36811 737
36812 737
36813 737
36814 737
36815 737
36816 737
36817 737
36818 737
36819 737
36820 737
36821 737
36822 737
36823 737
36824 737
36825 737
36826 737
36827 737
36828 737
36829 737
36830 737
36831 737
36832 737
36833 737
36834 737
36835 737
36836 737
36837 737
36838 737
36839 737
36840 737
36841 737
36842 737
36843 737
36844 737
36845 737
36846 737
36847 737
36848 737
36849 737
36850 737
36851 738
36852 738
36853 738
36854 738
36855 738
36856 738
36857 738
36858 738
36859 738
36860 738
36861 738
36862 738
36863 738
36864 738
36865 738
36866 738
36867 738
36868 738
36869 738
36870 738
36871 738
36872 738
36873 738
36874 738
36875 738
36876 738
36877 738
36878 738
36879 738
36880 738
36881 738
36882 738
36883 738
36884 738
36885 738
36886 738
36887 738
36888 738
36889 738
36890 738
36891 738
36892 738
36893 738
36894 738
36895 738
36896 738
36897 738
36898 738
36899 738
36900 738
36901 739
36902 739
36903 739
36904 739
36905 739
36906 739
36907 739
36908 739
36909 739
36910 739
36911 739
36912 739
36913 739
36914 739
36915 739
36916 739
36917 739
36918 739
36919 739
36920 739
36921 739
36922 739
36923 739
36924 739
36925 739
36926 739
36927 739
36928 739
36929 739
36930 739
36931 739
36932 739
36933 739
36934 739
36935 739
36936 739
36937 739
36938 739
36939 739
36940 739
36941 739
36942 739
36943 739
36944 739
36945 739
36946 739
36947 739
36948 739
36949 739
36950 739
36951 740
36952 740
36953 740
36954 740
36955 740
36956 740
36957 740
36958 740
36959 740
36960 740
36961 740
36962 740
36963 740
36964 740
36965 740
36966 740
36967 740
36968 740
36969 740
36970 740
36971 740
36972 740
36973 740
36974 740
36975 740
36976 740
36977 740
36978 740
36979 740
36980 740
36981 740
36982 740
36983 740
36984 740
36985 740
36986 740
36987 740
36988 740
36989 740
36990 740
36991 740
36992 740
36993 740
36994 740
36995 740
36996 740
36997 740
36998 740
36999 740
37000 740
37001 741
37002 741
37003 741
37004 741
37005 741
37006 741
37007 741
37008 741
37009 741
37010 741
37011 741
37012 741
37013 741
37014 741
37015 741
37016 741
37017 741
37018 741
37019 741
37020 741
37021 741
37022 741
37023 741
37024 741
37025 741
37026 741
37027 741
37028 741
37029 741
37030 741
37031 741
37032 741
37033 741
37034 741
37035 741
37036 741
37037 741
37038 741
37039 741
37040 741
37041 741
37042 741
37043 741
37044 741
37045 741
37046 741
37047 741
37048 741
37049 741
37050 741
37051 742
37052 742
37053 742
37054 742
37055 742
37056 742
37057 742
37058 742
37059 742
37060 742
37061 742
37062 742
37063 742
37064 742
37065 742
37066 742
37067 742
37068 742
37069 742
37070 742
37071 742
37072 742
37073 742
37074 742
37075 742
37076 742
37077 742
37078 742
37079 742
37080 742
37081 742
37082 742
37083 742
37084 742
37085 742
37086 742
37087 742
37088 742
37089 742
37090 742
37091 742
37092 742
37093 742
37094 742
37095 742
37096 742
37097 742
37098 742
37099 742
37100 742
37101 743
37102 743
37103 743
37104 743
37105 743
37106 743
37107 743
37108 743
37109 743
37110 743
37111 743
37112 743
37113 743
37114 743
37115 743
37116 743
37117 743
37118 743
37119 743
37120 743
37121 743
37122 743
37123 743
37124 743
37125 743
37126 743
37127 743
37128 743
37129 743
37130 743
37131 743
37132 743
37133 743
37134 743
37135 743
37136 743
37137 743
37138 743
37139 743
37140 743
37141 743
37142 743
37143 743
37144 743
37145 743
37146 743
37147 743
37148 743
37149 743
37150 743
37151 744
37152 744
37153 744
37154 744
37155 744
37156 744
37157 744
37158 744
37159 744
37160 744
37161 744
37162 744
37163 744
37164 744
37165 744
37166 744
37167 744
37168 744
37169 744
37170 744
37171 744
37172 744
37173 744
37174 744
37175 744
37176 744
37177 744
37178 744
37179 744
37180 744
37181 744
37182 744
37183 744
37184 744
37185 744
37186 744
37187 744
37188 744
37189 744
37190 744
37191 744
37192 744
37193 744
37194 744
37195 744
37196 744
37197 744
37198 744
37199 744
37200 744
37201 745
37202 745
37203 745
37204 745
37205 745
37206 745
37207 745
37208 745
37209 745
37210 745
37211 745
37212 745
37213 745
37214 745
37215 745
37216 745
37217 745
37218 745
37219 745
37220 745
37221 745
37222 745
37223 745
37224 745
37225 745
37226 745
37227 745
37228 745
37229 745
37230 745
37231 745
37232 745
37233 745
37234 745
37235 745
37236 745
37237 745
37238 745
37239 745
37240 745
37241 745
37242 745
37243 745
37244 745
37245 745
37246 745
37247 745
37248 745
37249 745
37250 745
37251 746
37252 746
37253 746
37254 746
37255 746
37256 746
37257 746
37258 746
37259 746
37260 746
37261 746
37262 746
37263 746
37264 746
37265 746
37266 746
37267 746
37268 746
37269 746
37270 746
37271 746
37272 746
37273 746
37274 746
37275 746
37276 746
37277 746
37278 746
37279 746
37280 746
37281 746
37282 746
37283 746
37284 746
37285 746
37286 746
37287 746
37288 746
37289 746
37290 746
37291 746
37292 746
37293 746
37294 746
37295 746
37296 746
37297 746
37298 746
37299 746
37300 746
37301 747
37302 747
37303 747
37304 747
37305 747
37306 747
37307 747
37308 747
37309 747
37310 747
37311 747
37312 747
37313 747
37314 747
37315 747
37316 747
37317 747
37318 747
37319 747
37320 747
37321 747
37322 747
37323 747
37324 747
37325 747
37326 747
37327 747
37328 747
37329 747
37330 747
37331 747
37332 747
37333 747
37334 747
37335 747
37336 747
37337 747
37338 747
37339 747
37340 747
37341 747
37342 747
37343 747
37344 747
37345 747
37346 747
37347 747
37348 747
37349 747
37350 747
37351 748
37352 748
37353 748
37354 748
37355 748
37356 748
37357 748
37358 748
37359 748
37360 748
37361 748
37362 748
37363 748
37364 748
37365 748
37366 748
37367 748
37368 748
37369 748
37370 748
37371 748
37372 748
37373 748
37374 748
37375 748
37376 748
37377 748
37378 748
37379 748
37380 748
37381 748
37382 748
37383 748
37384 748
37385 748
37386 748
37387 748
37388 748
37389 748
37390 748
37391 748
37392 748
37393 748
37394 748
37395 748
37396 748
37397 748
37398 748
37399 748
37400 748
37401 749
37402 749
37403 749
37404 749
37405 749
37406 749
37407 749
37408 749
37409 749
37410 749
37411 749
37412 749
37413 749
37414 749
37415 749
37416 749
37417 749
37418 749
37419 749
37420 749
37421 749
37422 749
37423 749
37424 749
37425 749
37426 749
37427 749
37428 749
37429 749
37430 749
37431 749
37432 749
37433 749
37434 749
37435 749
37436 749
37437 749
37438 749
37439 749
37440 749
37441 749
37442 749
37443 749
37444 749
37445 749
37446 749
37447 749
37448 749
37449 749
37450 749
37451 750
37452 750
37453 750
37454 750
37455 750
37456 750
37457 750
37458 750
37459 750
37460 750
37461 750
37462 750
37463 750
37464 750
37465 750
37466 750
37467 750
37468 750
37469 750
37470 750
37471 750
37472 750
37473 750
37474 750
37475 750
37476 750
37477 750
37478 750
37479 750
37480 750
37481 750
37482 750
37483 750
37484 750
37485 750
37486 750
37487 750
37488 750
37489 750
37490 750
37491 750
37492 750
37493 750
37494 750
37495 750
37496 750
37497 750
37498 750
37499 750
37500 750
37501 751
37502 751
37503 751
37504 751
37505 751
37506 751
37507 751
37508 751
37509 751
37510 751
37511 751
37512 751
37513 751
37514 751
37515 751
37516 751
37517 751
37518 751
37519 751
37520 751
37521 751
37522 751
37523 751
37524 751
37525 751
37526 751
37527 751
37528 751
37529 751
37530 751
37531 751
37532 751
37533 751
37534 751
37535 751
37536 751
37537 751
37538 751
37539 751
37540 751
37541 751
37542 751
37543 751
37544 751
37545 751
37546 751
37547 751
37548 751
37549 751
37550 751
37551 752
37552 752
37553 752
37554 752
37555 752
37556 752
37557 752
37558 752
37559 752
37560 752
37561 752
37562 752
37563 752
37564 752
37565 752
37566 752
37567 752
37568 752
37569 752
37570 752
37571 752
37572 752
37573 752
37574 752
37575 752
37576 752
37577 752
37578 752
37579 752
37580 752
37581 752
37582 752
37583 752
37584 752
37585 752
37586 752
37587 752
37588 752
37589 752
37590 752
37591 752
37592 752
37593 752
37594 752
37595 752
37596 752
37597 752
37598 752
37599 752
37600 752
37601 753
37602 753
37603 753
37604 753
37605 753
37606 753
37607 753
37608 753
37609 753
37610 753
37611 753
37612 753
37613 753
37614 753
37615 753
37616 753
37617 753
37618 753
37619 753
37620 753
37621 753
37622 753
37623 753
37624 753
37625 753
37626 753
37627 753
37628 753
37629 753
37630 753
37631 753
37632 753
37633 753
37634 753
37635 753
37636 753
37637 753
37638 753
37639 753
37640 753
37641 753
37642 753
37643 753
37644 753
37645 753
37646 753
37647 753
37648 753
37649 753
37650 753
37651 754
37652 754
37653 754
37654 754
37655 754
37656 754
37657 754
37658 754
37659 754
37660 754
37661 754
37662 754
37663 754
37664 754
37665 754
37666 754
37667 754
37668 754
37669 754
37670 754
37671 754
37672 754
37673 754
37674 754
37675 754
37676 754
37677 754
37678 754
37679 754
37680 754
37681 754
37682 754
37683 754
37684 754
37685 754
37686 754
37687 754
37688 754
37689 754
37690 754
37691 754
37692 754
37693 754
37694 754
37695 754
37696 754
37697 754
37698 754
37699 754
37700 754
37701 755
37702 755
37703 755
37704 755
37705 755
37706 755
37707 755
37708 755
37709 755
37710 755
37711 755
37712 755
37713 755
37714 755
37715 755
37716 755
37717 755
37718 755
37719 755
37720 755
37721 755
37722 755
37723 755
37724 755
37725 755
37726 755
37727 755
37728 755
37729 755
37730 755
37731 755
37732 755
37733 755
37734 755
37735 755
37736 755
37737 755
37738 755
37739 755
37740 755
37741 755
37742 755
37743 755
37744 755
37745 755
37746 755
37747 755
37748 755
37749 755
37750 755
37751 756
37752 756
37753 756
37754 756
37755 756
37756 756
37757 756
37758 756
37759 756
37760 756
37761 756
37762 756
37763 756
37764 756
37765 756
37766 756
37767 756
37768 756
37769 756
37770 756
37771 756
37772 756
37773 756
37774 756
37775 756
37776 756
37777 756
37778 756
37779 756
37780 756
37781 756
37782 756
37783 756
37784 756
37785 756
37786 756
37787 756
37788 756
37789 756
37790 756
37791 756
37792 756
37793 756
37794 756
37795 756
37796 756
37797 756
37798 756
37799 756
37800 756
37801 757
37802 757
37803 757
37804 757
37805 757
37806 757
37807 757
37808 757
37809 757
37810 757
37811 757
37812 757
37813 757
37814 757
37815 757
37816 757
37817 757
37818 757
37819 757
37820 757
37821 757
37822 757
37823 757
37824 757
37825 757
37826 757
37827 757
37828 757
37829 757
37830 757
37831 757
37832 757
37833 757
37834 757
37835 757
37836 757
37837 757
37838 757
37839 757
37840 757
37841 757
37842 757
37843 757
37844 757
37845 757
37846 757
37847 757
37848 757
37849 757
37850 757
37851 758
37852 758
37853 758
37854 758
37855 758
37856 758
37857 758
37858 758
37859 758
37860 758
37861 758
37862 758
37863 758
37864 758
37865 758
37866 758
37867 758
37868 758
37869 758
37870 758
37871 758
37872 758
37873 758
37874 758
37875 758
37876 758
37877 758
37878 758
37879 758
37880 758
37881 758
37882 758
37883 758
37884 758
37885 758
37886 758
37887 758
37888 758
37889 758
37890 758
37891 758
37892 758
37893 758
37894 758
37895 758
37896 758
37897 758
37898 758
37899 758
37900 758
37901 759
37902 759
37903 759
37904 759
37905 759
37906 759
37907 759
37908 759
37909 759
37910 759
37911 759
37912 759
37913 759
37914 759
37915 759
37916 759
37917 759
37918 759
37919 759
37920 759
37921 759
37922 759
37923 759
37924 759
37925 759
37926 759
37927 759
37928 759
37929 759
37930 759
37931 759
37932 759
37933 759
37934 759
37935 759
37936 759
37937 759
37938 759
37939 759
37940 759
37941 759
37942 759
37943 759
37944 759
37945 759
37946 759
37947 759
37948 759
37949 759
37950 759
37951 760
37952 760
37953 760
37954 760
37955 760
37956 760
37957 760
37958 760
37959 760
37960 760
37961 760
37962 760
37963 760
37964 760
37965 760
37966 760
37967 760
37968 760
37969 760
37970 760
37971 760
37972 760
37973 760
37974 760
37975 760
37976 760
37977 760
37978 760
37979 760
37980 760
37981 760
37982 760
37983 760
37984 760
37985 760
37986 760
37987 760
37988 760
37989 760
37990 760
37991 760
37992 760
37993 760
37994 760
37995 760
37996 760
37997 760
37998 760
37999 760
38000 760
38001 761
38002 761
38003 761
38004 761
38005 761
38006 761
38007 761
38008 761
38009 761
38010 761
38011 761
38012 761
38013 761
38014 761
38015 761
38016 761
38017 761
38018 761
38019 761
38020 761
38021 761
38022 761
38023 761
38024 761
38025 761
38026 761
38027 761
38028 761
38029 761
38030 761
38031 761
38032 761
38033 761
38034 761
38035 761
38036 761
38037 761
38038 761
38039 761
38040 761
38041 761
38042 761
38043 761
38044 761
38045 761
38046 761
38047 761
38048 761
38049 761
38050 761
38051 762
38052 762
38053 762
38054 762
38055 762
38056 762
38057 762
38058 762
38059 762
38060 762
38061 762
38062 762
38063 762
38064 762
38065 762
38066 762
38067 762
38068 762
38069 762
38070 762
38071 762
38072 762
38073 762
38074 762
38075 762
38076 762
38077 762
38078 762
38079 762
38080 762
38081 762
38082 762
38083 762
38084 762
38085 762
38086 762
38087 762
38088 762
38089 762
38090 762
38091 762
38092 762
38093 762
38094 762
38095 762
38096 762
38097 762
38098 762
38099 762
38100 762
38101 763
38102 763
38103 763
38104 763
38105 763
38106 763
38107 763
38108 763
38109 763
38110 763
38111 763
38112 763
38113 763
38114 763
38115 763
38116 763
38117 763
38118 763
38119 763
38120 763
38121 763
38122 763
38123 763
38124 763
38125 763
38126 763
38127 763
38128 763
38129 763
38130 763
38131 763
38132 763
38133 763
38134 763
38135 763
38136 763
38137 763
38138 763
38139 763
38140 763
38141 763
38142 763
38143 763
38144 763
38145 763
38146 763
38147 763
38148 763
38149 763
38150 763
38151 764
38152 764
38153 764
38154 764
38155 764
38156 764
38157 764
38158 764
38159 764
38160 764
38161 764
38162 764
38163 764
38164 764
38165 764
38166 764
38167 764
38168 764
38169 764
38170 764
38171 764
38172 764
38173 764
38174 764
38175 764
38176 764
38177 764
38178 764
38179 764
38180 764
38181 764
38182 764
38183 764
38184 764
38185 764
38186 764
38187 764
38188 764
38189 764
38190 764
38191 764
38192 764
38193 764
38194 764
38195 764
38196 764
38197 764
38198 764
38199 764
38200 764
38201 765
38202 765
38203 765
38204 765
38205 765
38206 765
38207 765
38208 765
38209 765
38210 765
38211 765
38212 765
38213 765
38214 765
38215 765
38216 765
38217 765
38218 765
38219 765
38220 765
38221 765
38222 765
38223 765
38224 765
38225 765
38226 765
38227 765
38228 765
38229 765
38230 765
38231 765
38232 765
38233 765
38234 765
38235 765
38236 765
38237 765
38238 765
38239 765
38240 765
38241 765
38242 765
38243 765
38244 765
38245 765
38246 765
38247 765
38248 765
38249 765
38250 765
38251 766
38252 766
38253 766
38254 766
38255 766
38256 766
38257 766
38258 766
38259 766
38260 766
38261 766
38262 766
38263 766
38264 766
38265 766
38266 766
38267 766
38268 766
38269 766
38270 766
38271 766
38272 766
38273 766
38274 766
38275 766
38276 766
38277 766
38278 766
38279 766
38280 766
38281 766
38282 766
38283 766
38284 766
38285 766
38286 766
38287 766
38288 766
38289 766
38290 766
38291 766
38292 766
38293 766
38294 766
38295 766
38296 766
38297 766
38298 766
38299 766
38300 766
38301 767
38302 767
38303 767
38304 767
38305 767
38306 767
38307 767
38308 767
38309 767
38310 767
38311 767
38312 767
38313 767
38314 767
38315 767
38316 767
38317 767
38318 767
38319 767
38320 767
38321 767
38322 767
38323 767
38324 767
38325 767
38326 767
38327 767
38328 767
38329 767
38330 767
38331 767
38332 767
38333 767
38334 767
38335 767
38336 767
38337 767
38338 767
38339 767
38340 767
38341 767
38342 767
38343 767
38344 767
38345 767
38346 767
38347 767
38348 767
38349 767
38350 767
38351 768
38352 768
38353 768
38354 768
38355 768
38356 768
38357 768
38358 768
38359 768
38360 768
38361 768
38362 768
38363 768
38364 768
38365 768
38366 768
38367 768
38368 768
38369 768
38370 768
38371 768
38372 768
38373 768
38374 768
38375 768
38376 768
38377 768
38378 768
38379 768
38380 768
38381 768
38382 768
38383 768
38384 768
38385 768
38386 768
38387 768
38388 768
38389 768
38390 768
38391 768
38392 768
38393 768
38394 768
38395 768
38396 768
38397 768
38398 768
38399 768
38400 768
38401 769
38402 769
38403 769
38404 769
38405 769
38406 769
38407 769
38408 769
38409 769
38410 769
38411 769
38412 769
38413 769
38414 769
38415 769
38416 769
38417 769
38418 769
38419 769
38420 769
38421 769
38422 769
38423 769
38424 769
38425 769
38426 769
38427 769
38428 769
38429 769
38430 769
38431 769
38432 769
38433 769
38434 769
38435 769
38436 769
38437 769
38438 769
38439 769
38440 769
38441 769
38442 769
38443 769
38444 769
38445 769
38446 769
38447 769
38448 769
38449 769
38450 769
38451 770
38452 770
38453 770
38454 770
38455 770
38456 770
38457 770
38458 770
38459 770
38460 770
38461 770
38462 770
38463 770
38464 770
38465 770
38466 770
38467 770
38468 770
38469 770
38470 770
38471 770
38472 770
38473 770
38474 770
38475 770
38476 770
38477 770
38478 770
38479 770
38480 770
38481 770
38482 770
38483 770
38484 770
38485 770
38486 770
38487 770
38488 770
38489 770
38490 770
38491 770
38492 770
38493 770
38494 770
38495 770
38496 770
38497 770
38498 770
38499 770
38500 770
38501 771
38502 771
38503 771
38504 771
38505 771
38506 771
38507 771
38508 771
38509 771
38510 771
38511 771
38512 771
38513 771
38514 771
38515 771
38516 771
38517 771
38518 771
38519 771
38520 771
38521 771
38522 771
38523 771
38524 771
38525 771
38526 771
38527 771
38528 771
38529 771
38530 771
38531 771
38532 771
38533 771
38534 771
38535 771
38536 771
38537 771
38538 771
38539 771
38540 771
38541 771
38542 771
38543 771
38544 771
38545 771
38546 771
38547 771
38548 771
38549 771
38550 771
38551 772
38552 772
38553 772
38554 772
38555 772
38556 772
38557 772
38558 772
38559 772
38560 772
38561 772
38562 772
38563 772
38564 772
38565 772
38566 772
38567 772
38568 772
38569 772
38570 772
38571 772
38572 772
38573 772
38574 772
38575 772
38576 772
38577 772
38578 772
38579 772
38580 772
38581 772
38582 772
38583 772
38584 772
38585 772
38586 772
38587 772
38588 772
38589 772
38590 772
38591 772
38592 772
38593 772
38594 772
38595 772
38596 772
38597 772
38598 772
38599 772
38600 772
38601 773
38602 773
38603 773
38604 773
38605 773
38606 773
38607 773
38608 773
38609 773
38610 773
38611 773
38612 773
38613 773
38614 773
38615 773
38616 773
38617 773
38618 773
38619 773
38620 773
38621 773
38622 773
38623 773
38624 773
38625 773
38626 773
38627 773
38628 773
38629 773
38630 773
38631 773
38632 773
38633 773
38634 773
38635 773
38636 773
38637 773
38638 773
38639 773
38640 773
38641 773
38642 773
38643 773
38644 773
38645 773
38646 773
38647 773
38648 773
38649 773
38650 773
38651 774
38652 774
38653 774
38654 774
38655 774
38656 774
38657 774
38658 774
38659 774
38660 774
38661 774
38662 774
38663 774
38664 774
38665 774
38666 774
38667 774
38668 774
38669 774
38670 774
38671 774
38672 774
38673 774
38674 774
38675 774
38676 774
38677 774
38678 774
38679 774
38680 774
38681 774
38682 774
38683 774
38684 774
38685 774
38686 774
38687 774
38688 774
38689 774
38690 774
38691 774
38692 774
38693 774
38694 774
38695 774
38696 774
38697 774
38698 774
38699 774
38700 774
38701 775
38702 775
38703 775
38704 775
38705 775
38706 775
38707 775
38708 775
38709 775
38710 775
38711 775
38712 775
38713 775
38714 775
38715 775
38716 775
38717 775
38718 775
38719 775
38720 775
38721 775
38722 775
38723 775
38724 775
38725 775
38726 775
38727 775
38728 775
38729 775
38730 775
38731 775
38732 775
38733 775
38734 775
38735 775
38736 775
38737 775
38738 775
38739 775
38740 775
38741 775
38742 775
38743 775
38744 775
38745 775
38746 775
38747 775
38748 775
38749 775
38750 775
38751 776
38752 776
38753 776
38754 776
38755 776
38756 776
38757 776
38758 776
38759 776
38760 776
38761 776
38762 776
38763 776
38764 776
38765 776
38766 776
38767 776
38768 776
38769 776
38770 776
38771 776
38772 776
38773 776
38774 776
38775 776
38776 776
38777 776
38778 776
38779 776
38780 776
38781 776
38782 776
38783 776
38784 776
38785 776
38786 776
38787 776
38788 776
38789 776
38790 776
38791 776
38792 776
38793 776
38794 776
38795 776
38796 776
38797 776
38798 776
38799 776
38800 776
38801 777
38802 777
38803 777
38804 777
38805 777
38806 777
38807 777
38808 777
38809 777
38810 777
38811 777
38812 777
38813 777
38814 777
38815 777
38816 777
38817 777
38818 777
38819 777
38820 777
38821 777
38822 777
38823 777
38824 777
38825 777
38826 777
38827 777
38828 777
38829 777
38830 777
38831 777
38832 777
38833 777
38834 777
38835 777
38836 777
38837 777
38838 777
38839 777
38840 777
38841 777
38842 777
38843 777
38844 777
38845 777
38846 777
38847 777
38848 777
38849 777
38850 777
38851 778
38852 778
38853 778
38854 778
38855 778
38856 778
38857 778
38858 778
38859 778
38860 778
38861 778
38862 778
38863 778
38864 778
38865 778
38866 778
38867 778
38868 778
38869 778
38870 778
38871 778
38872 778
38873 778
38874 778
38875 778
38876 778
38877 778
38878 778
38879 778
38880 778
38881 778
38882 778
38883 778
38884 778
38885 778
38886 778
38887 778
38888 778
38889 778
38890 778
38891 778
38892 778
38893 778
38894 778
38895 778
38896 778
38897 778
38898 778
38899 778
38900 778
38901 779
38902 779
38903 779
38904 779
38905 779
38906 779
38907 779
38908 779
38909 779
38910 779
38911 779
38912 779
38913 779
38914 779
38915 779
38916 779
38917 779
38918 779
38919 779
38920 779
38921 779
38922 779
38923 779
38924 779
38925 779
38926 779
38927 779
38928 779
38929 779
38930 779
38931 779
38932 779
38933 779
38934 779
38935 779
38936 779
38937 779
38938 779
38939 779
38940 779
38941 779
38942 779
38943 779
38944 779
38945 779
38946 779
38947 779
38948 779
38949 779
38950 779
38951 780
38952 780
38953 780
38954 780
38955 780
38956 780
38957 780
38958 780
38959 780
38960 780
38961 780
38962 780
38963 780
38964 780
38965 780
38966 780
38967 780
38968 780
38969 780
38970 780
38971 780
38972 780
38973 780
38974 780
38975 780
38976 780
38977 780
38978 780
38979 780
38980 780
38981 780
38982 780
38983 780
38984 780
38985 780
38986 780
38987 780
38988 780
38989 780
38990 780
38991 780
38992 780
38993 780
38994 780
38995 780
38996 780
38997 780
38998 780
38999 780
39000 780
39001 781
39002 781
39003 781
39004 781
39005 781
39006 781
39007 781
39008 781
39009 781
39010 781
39011 781
39012 781
39013 781
39014 781
39015 781
39016 781
39017 781
39018 781
39019 781
39020 781
39021 781
39022 781
39023 781
39024 781
39025 781
39026 781
39027 781
39028 781
39029 781
39030 781
39031 781
39032 781
39033 781
39034 781
39035 781
39036 781
39037 781
39038 781
39039 781
39040 781
39041 781
39042 781
39043 781
39044 781
39045 781
39046 781
39047 781
39048 781
39049 781
39050 781
39051 782
39052 782
39053 782
39054 782
39055 782
39056 782
39057 782
39058 782
39059 782
39060 782
39061 782
39062 782
39063 782
39064 782
39065 782
39066 782
39067 782
39068 782
39069 782
39070 782
39071 782
39072 782
39073 782
39074 782
39075 782
39076 782
39077 782
39078 782
39079 782
39080 782
39081 782
39082 782
39083 782
39084 782
39085 782
39086 782
39087 782
39088 782
39089 782
39090 782
39091 782
39092 782
39093 782
39094 782
39095 782
39096 782
39097 782
39098 782
39099 782
39100 782
39101 783
39102 783
39103 783
39104 783
39105 783
39106 783
39107 783
39108 783
39109 783
39110 783
39111 783
39112 783
39113 783
39114 783
39115 783
39116 783
39117 783
39118 783
39119 783
39120 783
39121 783
39122 783
39123 783
39124 783
39125 783
39126 783
39127 783
39128 783
39129 783
39130 783
39131 783
39132 783
39133 783
39134 783
39135 783
39136 783
39137 783
39138 783
39139 783
39140 783
39141 783
39142 783
39143 783
39144 783
39145 783
39146 783
39147 783
39148 783
39149 783
39150 783
39151 784
39152 784
39153 784
39154 784
39155 784
39156 784
39157 784
39158 784
39159 784
39160 784
39161 784
39162 784
39163 784
39164 784
39165 784
39166 784
39167 784
39168 784
39169 784
39170 784
39171 784
39172 784
39173 784
39174 784
39175 784
39176 784
39177 784
39178 784
39179 784
39180 784
39181 784
39182 784
39183 784
39184 784
39185 784
39186 784
39187 784
39188 784
39189 784
39190 784
39191 784
39192 784
39193 784
39194 784
39195 784
39196 784
39197 784
39198 784
39199 784
39200 784
39201 785
39202 785
39203 785
39204 785
39205 785
39206 785
39207 785
39208 785
39209 785
39210 785
39211 785
39212 785
39213 785
39214 785
39215 785
39216 785
39217 785
39218 785
39219 785
39220 785
39221 785
39222 785
39223 785
39224 785
39225 785
39226 785
39227 785
39228 785
39229 785
39230 785
39231 785
39232 785
39233 785
39234 785
39235 785
39236 785
39237 785
39238 785
39239 785
39240 785
39241 785
39242 785
39243 785
39244 785
39245 785
39246 785
39247 785
39248 785
39249 785
39250 785
39251 786
39252 786
39253 786
39254 786
39255 786
39256 786
39257 786
39258 786
39259 786
39260 786
39261 786
39262 786
39263 786
39264 786
39265 786
39266 786
39267 786
39268 786
39269 786
39270 786
39271 786
39272 786
39273 786
39274 786
39275 786
39276 786
39277 786
39278 786
39279 786
39280 786
39281 786
39282 786
39283 786
39284 786
39285 786
39286 786
39287 786
39288 786
39289 786
39290 786
39291 786
39292 786
39293 786
39294 786
39295 786
39296 786
39297 786
39298 786
39299 786
39300 786
39301 787
39302 787
39303 787
39304 787
39305 787
39306 787
39307 787
39308 787
39309 787
39310 787
39311 787
39312 787
39313 787
39314 787
39315 787
39316 787
39317 787
39318 787
39319 787
39320 787
39321 787
39322 787
39323 787
39324 787
39325 787
39326 787
39327 787
39328 787
39329 787
39330 787
39331 787
39332 787
39333 787
39334 787
39335 787
39336 787
39337 787
39338 787
39339 787
39340 787
39341 787
39342 787
39343 787
39344 787
39345 787
39346 787
39347 787
39348 787
39349 787
39350 787
39351 788
39352 788
39353 788
39354 788
39355 788
39356 788
39357 788
39358 788
39359 788
39360 788
39361 788
39362 788
39363 788
39364 788
39365 788
39366 788
39367 788
39368 788
39369 788
39370 788
39371 788
39372 788
39373 788
39374 788
39375 788
39376 788
39377 788
39378 788
39379 788
39380 788
39381 788
39382 788
39383 788
39384 788
39385 788
39386 788
39387 788
39388 788
39389 788
39390 788
39391 788
39392 788
39393 788
39394 788
39395 788
39396 788
39397 788
39398 788
39399 788
39400 788
39401 789
39402 789
39403 789
39404 789
39405 789
39406 789
39407 789
39408 789
39409 789
39410 789
39411 789
39412 789
39413 789
39414 789
39415 789
39416 789
39417 789
39418 789
39419 789
39420 789
39421 789
39422 789
39423 789
39424 789
39425 789
39426 789
39427 789
39428 789
39429 789
39430 789
39431 789
39432 789
39433 789
39434 789
39435 789
39436 789
39437 789
39438 789
39439 789
39440 789
39441 789
39442 789
39443 789
39444 789
39445 789
39446 789
39447 789
39448 789
39449 789
39450 789
39451 790
39452 790
39453 790
39454 790
39455 790
39456 790
39457 790
39458 790
39459 790
39460 790
39461 790
39462 790
39463 790
39464 790
39465 790
39466 790
39467 790
39468 790
39469 790
39470 790
39471 790
39472 790
39473 790
39474 790
39475 790
39476 790
39477 790
39478 790
39479 790
39480 790
39481 790
39482 790
39483 790
39484 790
39485 790
39486 790
39487 790
39488 790
39489 790
39490 790
39491 790
39492 790
39493 790
39494 790
39495 790
39496 790
39497 790
39498 790
39499 790
39500 790
39501 791
39502 791
39503 791
39504 791
39505 791
39506 791
39507 791
39508 791
39509 791
39510 791
39511 791
39512 791
39513 791
39514 791
39515 791
39516 791
39517 791
39518 791
39519 791
39520 791
39521 791
39522 791
39523 791
39524 791
39525 791
39526 791
39527 791
39528 791
39529 791
39530 791
39531 791
39532 791
39533 791
39534 791
39535 791
39536 791
39537 791
39538 791
39539 791
39540 791
39541 791
39542 791
39543 791
39544 791
39545 791
39546 791
39547 791
39548 791
39549 791
39550 791
39551 792
39552 792
39553 792
39554 792
39555 792
39556 792
39557 792
39558 792
39559 792
39560 792
39561 792
39562 792
39563 792
39564 792
39565 792
39566 792
39567 792
39568 792
39569 792
39570 792
39571 792
39572 792
39573 792
39574 792
39575 792
39576 792
39577 792
39578 792
39579 792
39580 792
39581 792
39582 792
39583 792
39584 792
39585 792
39586 792
39587 792
39588 792
39589 792
39590 792
39591 792
39592 792
39593 792
39594 792
39595 792
39596 792
39597 792
39598 792
39599 792
39600 792
39601 793
39602 793
39603 793
39604 793
39605 793
39606 793
39607 793
39608 793
39609 793
39610 793
39611 793
39612 793
39613 793
39614 793
39615 793
39616 793
39617 793
39618 793
39619 793
39620 793
39621 793
39622 793
39623 793
39624 793
39625 793
39626 793
39627 793
39628 793
39629 793
39630 793
39631 793
39632 793
39633 793
39634 793
39635 793
39636 793
39637 793
39638 793
39639 793
39640 793
39641 793
39642 793
39643 793
39644 793
39645 793
39646 793
39647 793
39648 793
39649 793
39650 793
39651 794
39652 794
39653 794
39654 794
39655 794
39656 794
39657 794
39658 794
39659 794
39660 794
39661 794
39662 794
39663 794
39664 794
39665 794
39666 794
39667 794
39668 794
39669 794
39670 794
39671 794
39672 794
39673 794
39674 794
39675 794
39676 794
39677 794
39678 794
39679 794
39680 794
39681 794
39682 794
39683 794
39684 794
39685 794
39686 794
39687 794
39688 794
39689 794
39690 794
39691 794
39692 794
39693 794
39694 794
39695 794
39696 794
39697 794
39698 794
39699 794
39700 794
39701 795
39702 795
39703 795
39704 795
39705 795
39706 795
39707 795
39708 795
39709 795
39710 795
39711 795
39712 795
39713 795
39714 795
39715 795
39716 795
39717 795
39718 795
39719 795
39720 795
39721 795
39722 795
39723 795
39724 795
39725 795
39726 795
39727 795
39728 795
39729 795
39730 795
39731 795
39732 795
39733 795
39734 795
39735 795
39736 795
39737 795
39738 795
39739 795
39740 795
39741 795
39742 795
39743 795
39744 795
39745 795
39746 795
39747 795
39748 795
39749 795
39750 795
39751 796
39752 796
39753 796
39754 796
39755 796
39756 796
39757 796
39758 796
39759 796
39760 796
39761 796
39762 796
39763 796
39764 796
39765 796
39766 796
39767 796
39768 796
39769 796
39770 796
39771 796
39772 796
39773 796
39774 796
39775 796
39776 796
39777 796
39778 796
39779 796
39780 796
39781 796
39782 796
39783 796
39784 796
39785 796
39786 796
39787 796
39788 796
39789 796
39790 796
39791 796
39792 796
39793 796
39794 796
39795 796
39796 796
39797 796
39798 796
39799 796
39800 796
39801 797
39802 797
39803 797
39804 797
39805 797
39806 797
39807 797
39808 797
39809 797
39810 797
39811 797
39812 797
39813 797
39814 797
39815 797
39816 797
39817 797
39818 797
39819 797
39820 797
39821 797
39822 797
39823 797
39824 797
39825 797
39826 797
39827 797
39828 797
39829 797
39830 797
39831 797
39832 797
39833 797
39834 797
39835 797
39836 797
39837 797
39838 797
39839 797
39840 797
39841 797
39842 797
39843 797
39844 797
39845 797
39846 797
39847 797
39848 797
39849 797
39850 797
39851 798
39852 798
39853 798
39854 798
39855 798
39856 798
39857 798
39858 798
39859 798
39860 798
39861 798
39862 798
39863 798
39864 798
39865 798
39866 798
39867 798
39868 798
39869 798
39870 798
39871 798
39872 798
39873 798
39874 798
39875 798
39876 798
39877 798
39878 798
39879 798
39880 798
39881 798
39882 798
39883 798
39884 798
39885 798
39886 798
39887 798
39888 798
39889 798
39890 798
39891 798
39892 798
39893 798
39894 798
39895 798
39896 798
39897 798
39898 798
39899 798
39900 798
39901 799
39902 799
39903 799
39904 799
39905 799
39906 799
39907 799
39908 799
39909 799
39910 799
39911 799
39912 799
39913 799
39914 799
39915 799
39916 799
39917 799
39918 799
39919 799
39920 799
39921 799
39922 799
39923 799
39924 799
39925 799
39926 799
39927 799
39928 799
39929 799
39930 799
39931 799
39932 799
39933 799
39934 799
39935 799
39936 799
39937 799
39938 799
39939 799
39940 799
39941 799
39942 799
39943 799
39944 799
39945 799
39946 799
39947 799
39948 799
39949 799
39950 799
39951 800
39952 800
39953 800
39954 800
39955 800
39956 800
39957 800
39958 800
39959 800
39960 800
39961 800
39962 800
39963 800
39964 800
39965 800
39966 800
39967 800
39968 800
39969 800
39970 800
39971 800
39972 800
39973 800
39974 800
39975 800
39976 800
39977 800
39978 800
39979 800
39980 800
39981 800
39982 800
39983 800
39984 800
39985 800
39986 800
39987 800
39988 800
39989 800
39990 800
39991 800
39992 800
39993 800
39994 800
39995 800
39996 800
39997 800
39998 800
39999 800
40000 800
40001 801
40002 801
40003 801
40004 801
40005 801
40006 801
40007 801
40008 801
40009 801
40010 801
40011 801
40012 801
40013 801
40014 801
40015 801
40016 801
40017 801
40018 801
40019 801
40020 801
40021 801
40022 801
40023 801
40024 801
40025 801
40026 801
40027 801
40028 801
40029 801
40030 801
40031 801
40032 801
40033 801
40034 801
40035 801
40036 801
40037 801
40038 801
40039 801
40040 801
40041 801
40042 801
40043 801
40044 801
40045 801
40046 801
40047 801
40048 801
40049 801
40050 801
40051 802
40052 802
40053 802
40054 802
40055 802
40056 802
40057 802
40058 802
40059 802
40060 802
40061 802
40062 802
40063 802
40064 802
40065 802
40066 802
40067 802
40068 802
40069 802
40070 802
40071 802
40072 802
40073 802
40074 802
40075 802
40076 802
40077 802
40078 802
40079 802
40080 802
40081 802
40082 802
40083 802
40084 802
40085 802
40086 802
40087 802
40088 802
40089 802
40090 802
40091 802
40092 802
40093 802
40094 802
40095 802
40096 802
40097 802
40098 802
40099 802
40100 802
40101 803
40102 803
40103 803
40104 803
40105 803
40106 803
40107 803
40108 803
40109 803
40110 803
40111 803
40112 803
40113 803
40114 803
40115 803
40116 803
40117 803
40118 803
40119 803
40120 803
40121 803
40122 803
40123 803
40124 803
40125 803
40126 803
40127 803
40128 803
40129 803
40130 803
40131 803
40132 803
40133 803
40134 803
40135 803
40136 803
40137 803
40138 803
40139 803
40140 803
40141 803
40142 803
40143 803
40144 803
40145 803
40146 803
40147 803
40148 803
40149 803
40150 803
40151 804
40152 804
40153 804
40154 804
40155 804
40156 804
40157 804
40158 804
40159 804
40160 804
40161 804
40162 804
40163 804
40164 804
40165 804
40166 804
40167 804
40168 804
40169 804
40170 804
40171 804
40172 804
40173 804
40174 804
40175 804
40176 804
40177 804
40178 804
40179 804
40180 804
40181 804
40182 804
40183 804
40184 804
40185 804
40186 804
40187 804
40188 804
40189 804
40190 804
40191 804
40192 804
40193 804
40194 804
40195 804
40196 804
40197 804
40198 804
40199 804
40200 804
40201 805
40202 805
40203 805
40204 805
40205 805
40206 805
40207 805
40208 805
40209 805
40210 805
40211 805
40212 805
40213 805
40214 805
40215 805
40216 805
40217 805
40218 805
40219 805
40220 805
40221 805
40222 805
40223 805
40224 805
40225 805
40226 805
40227 805
40228 805
40229 805
40230 805
40231 805
40232 805
40233 805
40234 805
40235 805
40236 805
40237 805
40238 805
40239 805
40240 805
40241 805
40242 805
40243 805
40244 805
40245 805
40246 805
40247 805
40248 805
40249 805
40250 805
40251 806
40252 806
40253 806
40254 806
40255 806
40256 806
40257 806
40258 806
40259 806
40260 806
40261 806
40262 806
40263 806
40264 806
40265 806
40266 806
40267 806
40268 806
40269 806
40270 806
40271 806
40272 806
40273 806
40274 806
40275 806
40276 806
40277 806
40278 806
40279 806
40280 806
40281 806
40282 806
40283 806
40284 806
40285 806
40286 806
40287 806
40288 806
40289 806
40290 806
40291 806
40292 806
40293 806
40294 806
40295 806
40296 806
40297 806
40298 806
40299 806
40300 806
40301 807
40302 807
40303 807
40304 807
40305 807
40306 807
40307 807
40308 807
40309 807
40310 807
40311 807
40312 807
40313 807
40314 807
40315 807
40316 807
40317 807
40318 807
40319 807
40320 807
40321 807
40322 807
40323 807
40324 807
40325 807
40326 807
40327 807
40328 807
40329 807
40330 807
40331 807
40332 807
40333 807
40334 807
40335 807
40336 807
40337 807
40338 807
40339 807
40340 807
40341 807
40342 807
40343 807
40344 807
40345 807
40346 807
40347 807
40348 807
40349 807
40350 807
40351 808
40352 808
40353 808
40354 808
40355 808
40356 808
40357 808
40358 808
40359 808
40360 808
40361 808
40362 808
40363 808
40364 808
40365 808
40366 808
40367 808
40368 808
40369 808
40370 808
40371 808
40372 808
40373 808
40374 808
40375 808
40376 808
40377 808
40378 808
40379 808
40380 808
40381 808
40382 808
40383 808
40384 808
40385 808
40386 808
40387 808
40388 808
40389 808
40390 808
40391 808
40392 808
40393 808
40394 808
40395 808
40396 808
40397 808
40398 808
40399 808
40400 808
40401 809
40402 809
40403 809
40404 809
40405 809
40406 809
40407 809
40408 809
40409 809
40410 809
40411 809
40412 809
40413 809
40414 809
40415 809
40416 809
40417 809
40418 809
40419 809
40420 809
40421 809
40422 809
40423 809
40424 809
40425 809
40426 809
40427 809
40428 809
40429 809
40430 809
40431 809
40432 809
40433 809
40434 809
40435 809
40436 809
40437 809
40438 809
40439 809
40440 809
40441 809
40442 809
40443 809
40444 809
40445 809
40446 809
40447 809
40448 809
40449 809
40450 809
40451 810
40452 810
40453 810
40454 810
40455 810
40456 810
40457 810
40458 810
40459 810
40460 810
40461 810
40462 810
40463 810
40464 810
40465 810
40466 810
40467 810
40468 810
40469 810
40470 810
40471 810
40472 810
40473 810
40474 810
40475 810
40476 810
40477 810
40478 810
40479 810
40480 810
40481 810
40482 810
40483 810
40484 810
40485 810
40486 810
40487 810
40488 810
40489 810
40490 810
40491 810
40492 810
40493 810
40494 810
40495 810
40496 810
40497 810
40498 810
40499 810
40500 810
40501 811
40502 811
40503 811
40504 811
40505 811
40506 811
40507 811
40508 811
40509 811
40510 811
40511 811
40512 811
40513 811
40514 811
40515 811
40516 811
40517 811
40518 811
40519 811
40520 811
40521 811
40522 811
40523 811
40524 811
40525 811
40526 811
40527 811
40528 811
40529 811
40530 811
40531 811
40532 811
40533 811
40534 811
40535 811
40536 811
40537 811
40538 811
40539 811
40540 811
40541 811
40542 811
40543 811
40544 811
40545 811
40546 811
40547 811
40548 811
40549 811
40550 811
40551 812
40552 812
40553 812
40554 812
40555 812
40556 812
40557 812
40558 812
40559 812
40560 812
40561 812
40562 812
40563 812
40564 812
40565 812
40566 812
40567 812
40568 812
40569 812
40570 812
40571 812
40572 812
40573 812
40574 812
40575 812
40576 812
40577 812
40578 812
40579 812
40580 812
40581 812
40582 812
40583 812
40584 812
40585 812
40586 812
40587 812
40588 812
40589 812
40590 812
40591 812
40592 812
40593 812
40594 812
40595 812
40596 812
40597 812
40598 812
40599 812
40600 812
40601 813
40602 813
40603 813
40604 813
40605 813
40606 813
40607 813
40608 813
40609 813
40610 813
40611 813
40612 813
40613 813
40614 813
40615 813
40616 813
40617 813
40618 813
40619 813
40620 813
40621 813
40622 813
40623 813
40624 813
40625 813
40626 813
40627 813
40628 813
40629 813
40630 813
40631 813
40632 813
40633 813
40634 813
40635 813
40636 813
40637 813
40638 813
40639 813
40640 813
40641 813
40642 813
40643 813
40644 813
40645 813
40646 813
40647 813
40648 813
40649 813
40650 813
40651 814
40652 814
40653 814
40654 814
40655 814
40656 814
40657 814
40658 814
40659 814
40660 814
40661 814
40662 814
40663 814
40664 814
40665 814
40666 814
40667 814
40668 814
40669 814
40670 814
40671 814
40672 814
40673 814
40674 814
40675 814
40676 814
40677 814
40678 814
40679 814
40680 814
40681 814
40682 814
40683 814
40684 814
40685 814
40686 814
40687 814
40688 814
40689 814
40690 814
40691 814
40692 814
40693 814
40694 814
40695 814
40696 814
40697 814
40698 814
40699 814
40700 814
40701 815
40702 815
40703 815
40704 815
40705 815
40706 815
40707 815
40708 815
40709 815
40710 815
40711 815
40712 815
40713 815
40714 815
40715 815
40716 815
40717 815
40718 815
40719 815
40720 815
40721 815
40722 815
40723 815
40724 815
40725 815
40726 815
40727 815
40728 815
40729 815
40730 815
40731 815
40732 815
40733 815
40734 815
40735 815
40736 815
40737 815
40738 815
40739 815
40740 815
40741 815
40742 815
40743 815
40744 815
40745 815
40746 815
40747 815
40748 815
40749 815
40750 815
40751 816
40752 816
40753 816
40754 816
40755 816
40756 816
40757 816
40758 816
40759 816
40760 816
40761 816
40762 816
40763 816
40764 816
40765 816
40766 816
40767 816
40768 816
40769 816
40770 816
40771 816
40772 816
40773 816
40774 816
40775 816
40776 816
40777 816
40778 816
40779 816
40780 816
40781 816
40782 816
40783 816
40784 816
40785 816
40786 816
40787 816
40788 816
40789 816
40790 816
40791 816
40792 816
40793 816
40794 816
40795 816
40796 816
40797 816
40798 816
40799 816
40800 816
40801 817
40802 817
40803 817
40804 817
40805 817
40806 817
40807 817
40808 817
40809 817
40810 817
40811 817
40812 817
40813 817
40814 817
40815 817
40816 817
40817 817
40818 817
40819 817
40820 817
40821 817
40822 817
40823 817
40824 817
40825 817
40826 817
40827 817
40828 817
40829 817
40830 817
40831 817
40832 817
40833 817
40834 817
40835 817
40836 817
40837 817
40838 817
40839 817
40840 817
40841 817
40842 817
40843 817
40844 817
40845 817
40846 817
40847 817
40848 817
40849 817
40850 817
40851 818
40852 818
40853 818
40854 818
40855 818
40856 818
40857 818
40858 818
40859 818
40860 818
40861 818
40862 818
40863 818
40864 818
40865 818
40866 818
40867 818
40868 818
40869 818
40870 818
40871 818
40872 818
40873 818
40874 818
40875 818
40876 818
40877 818
40878 818
40879 818
40880 818
40881 818
40882 818
40883 818
40884 818
40885 818
40886 818
40887 818
40888 818
40889 818
40890 818
40891 818
40892 818
40893 818
40894 818
40895 818
40896 818
40897 818
40898 818
40899 818
40900 818
40901 819
40902 819
40903 819
40904 819
40905 819
40906 819
40907 819
40908 819
40909 819
40910 819
40911 819
40912 819
40913 819
40914 819
40915 819
40916 819
40917 819
40918 819
40919 819
40920 819
40921 819
40922 819
40923 819
40924 819
40925 819
40926 819
40927 819
40928 819
40929 819
40930 819
40931 819
40932 819
40933 819
40934 819
40935 819
40936 819
40937 819
40938 819
40939 819
40940 819
40941 819
40942 819
40943 819
40944 819
40945 819
40946 819
40947 819
40948 819
40949 819
40950 819
40951 820
40952 820
40953 820
40954 820
40955 820
40956 820
40957 820
40958 820
40959 820
40960 820
40961 820
40962 820
40963 820
40964 820
40965 820
40966 820
40967 820
40968 820
40969 820
40970 820
40971 820
40972 820
40973 820
40974 820
40975 820
40976 820
40977 820
40978 820
40979 820
40980 820
40981 820
40982 820
40983 820
40984 820
40985 820
40986 820
40987 820
40988 820
40989 820
40990 820
40991 820
40992 820
40993 820
40994 820
40995 820
40996 820
40997 820
40998 820
40999 820
41000 820
41001 821
41002 821
41003 821
41004 821
41005 821
41006 821
41007 821
41008 821
41009 821
41010 821
41011 821
41012 821
41013 821
41014 821
41015 821
41016 821
41017 821
41018 821
41019 821
41020 821
41021 821
41022 821
41023 821
41024 821
41025 821
41026 821
41027 821
41028 821
41029 821
41030 821
41031 821
41032 821
41033 821
41034 821
41035 821
41036 821
41037 821
41038 821
41039 821
41040 821
41041 821
41042 821
41043 821
41044 821
41045 821
41046 821
41047 821
41048 821
41049 821
41050 821
41051 822
41052 822
41053 822
41054 822
41055 822
41056 822
41057 822
41058 822
41059 822
41060 822
41061 822
41062 822
41063 822
41064 822
41065 822
41066 822
41067 822
41068 822
41069 822
41070 822
41071 822
41072 822
41073 822
41074 822
41075 822
41076 822
41077 822
41078 822
41079 822
41080 822
41081 822
41082 822
41083 822
41084 822
41085 822
41086 822
41087 822
41088 822
41089 822
41090 822
41091 822
41092 822
41093 822
41094 822
41095 822
41096 822
41097 822
41098 822
41099 822
41100 822
41101 823
41102 823
41103 823
41104 823
41105 823
41106 823
41107 823
41108 823
41109 823
41110 823
41111 823
41112 823
41113 823
41114 823
41115 823
41116 823
41117 823
41118 823
41119 823
41120 823
41121 823
41122 823
41123 823
41124 823
41125 823
41126 823
41127 823
41128 823
41129 823
41130 823
41131 823
41132 823
41133 823
41134 823
41135 823
41136 823
41137 823
41138 823
41139 823
41140 823
41141 823
41142 823
41143 823
41144 823
41145 823
41146 823
41147 823
41148 823
41149 823
41150 823
41151 824
41152 824
41153 824
41154 824
41155 824
41156 824
41157 824
41158 824
41159 824
41160 824
41161 824
41162 824
41163 824
41164 824
41165 824
41166 824
41167 824
41168 824
41169 824
41170 824
41171 824
41172 824
41173 824
41174 824
41175 824
41176 824
41177 824
41178 824
41179 824
41180 824
41181 824
41182 824
41183 824
41184 824
41185 824
41186 824
41187 824
41188 824
41189 824
41190 824
41191 824
41192 824
41193 824
41194 824
41195 824
41196 824
41197 824
41198 824
41199 824
41200 824
41201 825
41202 825
41203 825
41204 825
41205 825
41206 825
41207 825
41208 825
41209 825
41210 825
41211 825
41212 825
41213 825
41214 825
41215 825
41216 825
41217 825
41218 825
41219 825
41220 825
41221 825
41222 825
41223 825
41224 825
41225 825
41226 825
41227 825
41228 825
41229 825
41230 825
41231 825
41232 825
41233 825
41234 825
41235 825
41236 825
41237 825
41238 825
41239 825
41240 825
41241 825
41242 825
41243 825
41244 825
41245 825
41246 825
41247 825
41248 825
41249 825
41250 825
41251 826
41252 826
41253 826
41254 826
41255 826
41256 826
41257 826
41258 826
41259 826
41260 826
41261 826
41262 826
41263 826
41264 826
41265 826
41266 826
41267 826
41268 826
41269 826
41270 826
41271 826
41272 826
41273 826
41274 826
41275 826
41276 826
41277 826
41278 826
41279 826
41280 826
41281 826
41282 826
41283 826
41284 826
41285 826
41286 826
41287 826
41288 826
41289 826
41290 826
41291 826
41292 826
41293 826
41294 826
41295 826
41296 826
41297 826
41298 826
41299 826
41300 826
41301 827
41302 827
41303 827
41304 827
41305 827
41306 827
41307 827
41308 827
41309 827
41310 827
41311 827
41312 827
41313 827
41314 827
41315 827
41316 827
41317 827
41318 827
41319 827
41320 827
41321 827
41322 827
41323 827
41324 827
41325 827
41326 827
41327 827
41328 827
41329 827
41330 827
41331 827
41332 827
41333 827
41334 827
41335 827
41336 827
41337 827
41338 827
41339 827
41340 827
41341 827
41342 827
41343 827
41344 827
41345 827
41346 827
41347 827
41348 827
41349 827
41350 827
41351 828
41352 828
41353 828
41354 828
41355 828
41356 828
41357 828
41358 828
41359 828
41360 828
41361 828
41362 828
41363 828
41364 828
41365 828
41366 828
41367 828
41368 828
41369 828
41370 828
41371 828
41372 828
41373 828
41374 828
41375 828
41376 828
41377 828
41378 828
41379 828
41380 828
41381 828
41382 828
41383 828
41384 828
41385 828
41386 828
41387 828
41388 828
41389 828
41390 828
41391 828
41392 828
41393 828
41394 828
41395 828
41396 828
41397 828
41398 828
41399 828
41400 828
41401 829
41402 829
41403 829
41404 829
41405 829
41406 829
41407 829
41408 829
41409 829
41410 829
41411 829
41412 829
41413 829
41414 829
41415 829
41416 829
41417 829
41418 829
41419 829
41420 829
41421 829
41422 829
41423 829
41424 829
41425 829
41426 829
41427 829
41428 829
41429 829
41430 829
41431 829
41432 829
41433 829
41434 829
41435 829
41436 829
41437 829
41438 829
41439 829
41440 829
41441 829
41442 829
41443 829
41444 829
41445 829
41446 829
41447 829
41448 829
41449 829
41450 829
41451 830
41452 830
41453 830
41454 830
41455 830
41456 830
41457 830
41458 830
41459 830
41460 830
41461 830
41462 830
41463 830
41464 830
41465 830
41466 830
41467 830
41468 830
41469 830
41470 830
41471 830
41472 830
41473 830
41474 830
41475 830
41476 830
41477 830
41478 830
41479 830
41480 830
41481 830
41482 830
41483 830
41484 830
41485 830
41486 830
41487 830
41488 830
41489 830
41490 830
41491 830
41492 830
41493 830
41494 830
41495 830
41496 830
41497 830
41498 830
41499 830
41500 830
41501 831
41502 831
41503 831
41504 831
41505 831
41506 831
41507 831
41508 831
41509 831
41510 831
41511 831
41512 831
41513 831
41514 831
41515 831
41516 831
41517 831
41518 831
41519 831
41520 831
41521 831
41522 831
41523 831
41524 831
41525 831
41526 831
41527 831
41528 831
41529 831
41530 831
41531 831
41532 831
41533 831
41534 831
41535 831
41536 831
41537 831
41538 831
41539 831
41540 831
41541 831
41542 831
41543 831
41544 831
41545 831
41546 831
41547 831
41548 831
41549 831
41550 831
41551 832
41552 832
41553 832
41554 832
41555 832
41556 832
41557 832
41558 832
41559 832
41560 832
41561 832
41562 832
41563 832
41564 832
41565 832
41566 832
41567 832
41568 832
41569 832
41570 832
41571 832
41572 832
41573 832
41574 832
41575 832
41576 832
41577 832
41578 832
41579 832
41580 832
41581 832
41582 832
41583 832
41584 832
41585 832
41586 832
41587 832
41588 832
41589 832
41590 832
41591 832
41592 832
41593 832
41594 832
41595 832
41596 832
41597 832
41598 832
41599 832
41600 832
41601 833
41602 833
41603 833
41604 833
41605 833
41606 833
41607 833
41608 833
41609 833
41610 833
41611 833
41612 833
41613 833
41614 833
41615 833
41616 833
41617 833
41618 833
41619 833
41620 833
41621 833
41622 833
41623 833
41624 833
41625 833
41626 833
41627 833
41628 833
41629 833
41630 833
41631 833
41632 833
41633 833
41634 833
41635 833
41636 833
41637 833
41638 833
41639 833
41640 833
41641 833
41642 833
41643 833
41644 833
41645 833
41646 833
41647 833
41648 833
41649 833
41650 833
41651 834
41652 834
41653 834
41654 834
41655 834
41656 834
41657 834
41658 834
41659 834
41660 834
41661 834
41662 834
41663 834
41664 834
41665 834
41666 834
41667 834
41668 834
41669 834
41670 834
41671 834
41672 834
41673 834
41674 834
41675 834
41676 834
41677 834
41678 834
41679 834
41680 834
41681 834
41682 834
41683 834
41684 834
41685 834
41686 834
41687 834
41688 834
41689 834
41690 834
41691 834
41692 834
41693 834
41694 834
41695 834
41696 834
41697 834
41698 834
41699 834
41700 834
41701 835
41702 835
41703 835
41704 835
41705 835
41706 835
41707 835
41708 835
41709 835
41710 835
41711 835
41712 835
41713 835
41714 835
41715 835
41716 835
41717 835
41718 835
41719 835
41720 835
41721 835
41722 835
41723 835
41724 835
41725 835
41726 835
41727 835
41728 835
41729 835
41730 835
41731 835
41732 835
41733 835
41734 835
41735 835
41736 835
41737 835
41738 835
41739 835
41740 835
41741 835
41742 835
41743 835
41744 835
41745 835
41746 835
41747 835
41748 835
41749 835
41750 835
41751 836
41752 836
41753 836
41754 836
41755 836
41756 836
41757 836
41758 836
41759 836
41760 836
41761 836
41762 836
41763 836
41764 836
41765 836
41766 836
41767 836
41768 836
41769 836
41770 836
41771 836
41772 836
41773 836
41774 836
41775 836
41776 836
41777 836
41778 836
41779 836
41780 836
41781 836
41782 836
41783 836
41784 836
41785 836
41786 836
41787 836
41788 836
41789 836
41790 836
41791 836
41792 836
41793 836
41794 836
41795 836
41796 836
41797 836
41798 836
41799 836
41800 836
41801 837
41802 837
41803 837
41804 837
41805 837
41806 837
41807 837
41808 837
41809 837
41810 837
41811 837
41812 837
41813 837
41814 837
41815 837
41816 837
41817 837
41818 837
41819 837
41820 837
41821 837
41822 837
41823 837
41824 837
41825 837
41826 837
41827 837
41828 837
41829 837
41830 837
41831 837
41832 837
41833 837
41834 837
41835 837
41836 837
41837 837
41838 837
41839 837
41840 837
41841 837
41842 837
41843 837
41844 837
41845 837
41846 837
41847 837
41848 837
41849 837
41850 837
41851 838
41852 838
41853 838
41854 838
41855 838
41856 838
41857 838
41858 838
41859 838
41860 838
41861 838
41862 838
41863 838
41864 838
41865 838
41866 838
41867 838
41868 838
41869 838
41870 838
41871 838
41872 838
41873 838
41874 838
41875 838
41876 838
41877 838
41878 838
41879 838
41880 838
41881 838
41882 838
41883 838
41884 838
41885 838
41886 838
41887 838
41888 838
41889 838
41890 838
41891 838
41892 838
41893 838
41894 838
41895 838
41896 838
41897 838
41898 838
41899 838
41900 838
41901 839
41902 839
41903 839
41904 839
41905 839
41906 839
41907 839
41908 839
41909 839
41910 839
41911 839
41912 839
41913 839
41914 839
41915 839
41916 839
41917 839
41918 839
41919 839
41920 839
41921 839
41922 839
41923 839
41924 839
41925 839
41926 839
41927 839
41928 839
41929 839
41930 839
41931 839
41932 839
41933 839
41934 839
41935 839
41936 839
41937 839
41938 839
41939 839
41940 839
41941 839
41942 839
41943 839
41944 839
41945 839
41946 839
41947 839
41948 839
41949 839
41950 839
41951 840
41952 840
41953 840
41954 840
41955 840
41956 840
41957 840
41958 840
41959 840
41960 840
41961 840
41962 840
41963 840
41964 840
41965 840
41966 840
41967 840
41968 840
41969 840
41970 840
41971 840
41972 840
41973 840
41974 840
41975 840
41976 840
41977 840
41978 840
41979 840
41980 840
41981 840
41982 840
41983 840
41984 840
41985 840
41986 840
41987 840
41988 840
41989 840
41990 840
41991 840
41992 840
41993 840
41994 840
41995 840
41996 840
41997 840
41998 840
41999 840
42000 840
42001 841
42002 841
42003 841
42004 841
42005 841
42006 841
42007 841
42008 841
42009 841
42010 841
42011 841
42012 841
42013 841
42014 841
42015 841
42016 841
42017 841
42018 841
42019 841
42020 841
42021 841
42022 841
42023 841
42024 841
42025 841
42026 841
42027 841
42028 841
42029 841
42030 841
42031 841
42032 841
42033 841
42034 841
42035 841
42036 841
42037 841
42038 841
42039 841
42040 841
42041 841
42042 841
42043 841
42044 841
42045 841
42046 841
42047 841
42048 841
42049 841
42050 841
42051 842
42052 842
42053 842
42054 842
42055 842
42056 842
42057 842
42058 842
42059 842
42060 842
42061 842
42062 842
42063 842
42064 842
42065 842
42066 842
42067 842
42068 842
42069 842
42070 842
42071 842
42072 842
42073 842
42074 842
42075 842
42076 842
42077 842
42078 842
42079 842
42080 842
42081 842
42082 842
42083 842
42084 842
42085 842
42086 842
42087 842
42088 842
42089 842
42090 842
42091 842
42092 842
42093 842
42094 842
42095 842
42096 842
42097 842
42098 842
42099 842
42100 842
42101 843
42102 843
42103 843
42104 843
42105 843
42106 843
42107 843
42108 843
42109 843
42110 843
42111 843
42112 843
42113 843
42114 843
42115 843
42116 843
42117 843
42118 843
42119 843
42120 843
42121 843
42122 843
42123 843
42124 843
42125 843
42126 843
42127 843
42128 843
42129 843
42130 843
42131 843
42132 843
42133 843
42134 843
42135 843
42136 843
42137 843
42138 843
42139 843
42140 843
42141 843
42142 843
42143 843
42144 843
42145 843
42146 843
42147 843
42148 843
42149 843
42150 843
42151 844
42152 844
42153 844
42154 844
42155 844
42156 844
42157 844
42158 844
42159 844
42160 844
42161 844
42162 844
42163 844
42164 844
42165 844
42166 844
42167 844
42168 844
42169 844
42170 844
42171 844
42172 844
42173 844
42174 844
42175 844
42176 844
42177 844
42178 844
42179 844
42180 844
42181 844
42182 844
42183 844
42184 844
42185 844
42186 844
42187 844
42188 844
42189 844
42190 844
42191 844
42192 844
42193 844
42194 844
42195 844
42196 844
42197 844
42198 844
42199 844
42200 844
42201 845
42202 845
42203 845
42204 845
42205 845
42206 845
42207 845
42208 845
42209 845
42210 845
42211 845
42212 845
42213 845
42214 845
42215 845
42216 845
42217 845
42218 845
42219 845
42220 845
42221 845
42222 845
42223 845
42224 845
42225 845
42226 845
42227 845
42228 845
42229 845
42230 845
42231 845
42232 845
42233 845
42234 845
42235 845
42236 845
42237 845
42238 845
42239 845
42240 845
42241 845
42242 845
42243 845
42244 845
42245 845
42246 845
42247 845
42248 845
42249 845
42250 845
42251 846
42252 846
42253 846
42254 846
42255 846
42256 846
42257 846
42258 846
42259 846
42260 846
42261 846
42262 846
42263 846
42264 846
42265 846
42266 846
42267 846
42268 846
42269 846
42270 846
42271 846
42272 846
42273 846
42274 846
42275 846
42276 846
42277 846
42278 846
42279 846
42280 846
42281 846
42282 846
42283 846
42284 846
42285 846
42286 846
42287 846
42288 846
42289 846
42290 846
42291 846
42292 846
42293 846
42294 846
42295 846
42296 846
42297 846
42298 846
42299 846
42300 846
42301 847
42302 847
42303 847
42304 847
42305 847
42306 847
42307 847
42308 847
42309 847
42310 847
42311 847
42312 847
42313 847
42314 847
42315 847
42316 847
42317 847
42318 847
42319 847
42320 847
42321 847
42322 847
42323 847
42324 847
42325 847
42326 847
42327 847
42328 847
42329 847
42330 847
42331 847
42332 847
42333 847
42334 847
42335 847
42336 847
42337 847
42338 847
42339 847
42340 847
42341 847
42342 847
42343 847
42344 847
42345 847
42346 847
42347 847
42348 847
42349 847
42350 847
42351 848
42352 848
42353 848
42354 848
42355 848
42356 848
42357 848
42358 848
42359 848
42360 848
42361 848
42362 848
42363 848
42364 848
42365 848
42366 848
42367 848
42368 848
42369 848
42370 848
42371 848
42372 848
42373 848
42374 848
42375 848
42376 848
42377 848
42378 848
42379 848
42380 848
42381 848
42382 848
42383 848
42384 848
42385 848
42386 848
42387 848
42388 848
42389 848
42390 848
42391 848
42392 848
42393 848
42394 848
42395 848
42396 848
42397 848
42398 848
42399 848
42400 848
42401 849
42402 849
42403 849
42404 849
42405 849
42406 849
42407 849
42408 849
42409 849
42410 849
42411 849
42412 849
42413 849
42414 849
42415 849
42416 849
42417 849
42418 849
42419 849
42420 849
42421 849
42422 849
42423 849
42424 849
42425 849
42426 849
42427 849
42428 849
42429 849
42430 849
42431 849
42432 849
42433 849
42434 849
42435 849
42436 849
42437 849
42438 849
42439 849
42440 849
42441 849
42442 849
42443 849
42444 849
42445 849
42446 849
42447 849
42448 849
42449 849
42450 849
42451 850
42452 850
42453 850
42454 850
42455 850
42456 850
42457 850
42458 850
42459 850
42460 850
42461 850
42462 850
42463 850
42464 850
42465 850
42466 850
42467 850
42468 850
42469 850
42470 850
42471 850
42472 850
42473 850
42474 850
42475 850
42476 850
42477 850
42478 850
42479 850
42480 850
42481 850
42482 850
42483 850
42484 850
42485 850
42486 850
42487 850
42488 850
42489 850
42490 850
42491 850
42492 850
42493 850
42494 850
42495 850
42496 850
42497 850
42498 850
42499 850
42500 850
42501 851
42502 851
42503 851
42504 851
42505 851
42506 851
42507 851
42508 851
42509 851
42510 851
42511 851
42512 851
42513 851
42514 851
42515 851
42516 851
42517 851
42518 851
42519 851
42520 851
42521 851
42522 851
42523 851
42524 851
42525 851
42526 851
42527 851
42528 851
42529 851
42530 851
42531 851
42532 851
42533 851
42534 851
42535 851
42536 851
42537 851
42538 851
42539 851
42540 851
42541 851
42542 851
42543 851
42544 851
42545 851
42546 851
42547 851
42548 851
42549 851
42550 851
42551 852
42552 852
42553 852
42554 852
42555 852
42556 852
42557 852
42558 852
42559 852
42560 852
42561 852
42562 852
42563 852
42564 852
42565 852
42566 852
42567 852
42568 852
42569 852
42570 852
42571 852
42572 852
42573 852
42574 852
42575 852
42576 852
42577 852
42578 852
42579 852
42580 852
42581 852
42582 852
42583 852
42584 852
42585 852
42586 852
42587 852
42588 852
42589 852
42590 852
42591 852
42592 852
42593 852
42594 852
42595 852
42596 852
42597 852
42598 852
42599 852
42600 852
42601 853
42602 853
42603 853
42604 853
42605 853
42606 853
42607 853
42608 853
42609 853
42610 853
42611 853
42612 853
42613 853
42614 853
42615 853
42616 853
42617 853
42618 853
42619 853
42620 853
42621 853
42622 853
42623 853
42624 853
42625 853
42626 853
42627 853
42628 853
42629 853
42630 853
42631 853
42632 853
42633 853
42634 853
42635 853
42636 853
42637 853
42638 853
42639 853
42640 853
42641 853
42642 853
42643 853
42644 853
42645 853
42646 853
42647 853
42648 853
42649 853
42650 853
42651 854
42652 854
42653 854
42654 854
42655 854
42656 854
42657 854
42658 854
42659 854
42660 854
42661 854
42662 854
42663 854
42664 854
42665 854
42666 854
42667 854
42668 854
42669 854
42670 854
42671 854
42672 854
42673 854
42674 854
42675 854
42676 854
42677 854
42678 854
42679 854
42680 854
42681 854
42682 854
42683 854
42684 854
42685 854
42686 854
42687 854
42688 854
42689 854
42690 854
42691 854
42692 854
42693 854
42694 854
42695 854
42696 854
42697 854
42698 854
42699 854
42700 854
42701 855
42702 855
42703 855
42704 855
42705 855
42706 855
42707 855
42708 855
42709 855
42710 855
42711 855
42712 855
42713 855
42714 855
42715 855
42716 855
42717 855
42718 855
42719 855
42720 855
42721 855
42722 855
42723 855
42724 855
42725 855
42726 855
42727 855
42728 855
42729 855
42730 855
42731 855
42732 855
42733 855
42734 855
42735 855
42736 855
42737 855
42738 855
42739 855
42740 855
42741 855
42742 855
42743 855
42744 855
42745 855
42746 855
42747 855
42748 855
42749 855
42750 855
42751 856
42752 856
42753 856
42754 856
42755 856
42756 856
42757 856
42758 856
42759 856
42760 856
42761 856
42762 856
42763 856
42764 856
42765 856
42766 856
42767 856
42768 856
42769 856
42770 856
42771 856
42772 856
42773 856
42774 856
42775 856
42776 856
42777 856
42778 856
42779 856
42780 856
42781 856
42782 856
42783 856
42784 856
42785 856
42786 856
42787 856
42788 856
42789 856
42790 856
42791 856
42792 856
42793 856
42794 856
42795 856
42796 856
42797 856
42798 856
42799 856
42800 856
42801 857
42802 857
42803 857
42804 857
42805 857
42806 857
42807 857
42808 857
42809 857
42810 857
42811 857
42812 857
42813 857
42814 857
42815 857
42816 857
42817 857
42818 857
42819 857
42820 857
42821 857
42822 857
42823 857
42824 857
42825 857
42826 857
42827 857
42828 857
42829 857
42830 857
42831 857
42832 857
42833 857
42834 857
42835 857
42836 857
42837 857
42838 857
42839 857
42840 857
42841 857
42842 857
42843 857
42844 857
42845 857
42846 857
42847 857
42848 857
42849 857
42850 857
42851 858
42852 858
42853 858
42854 858
42855 858
42856 858
42857 858
42858 858
42859 858
42860 858
42861 858
42862 858
42863 858
42864 858
42865 858
42866 858
42867 858
42868 858
42869 858
42870 858
42871 858
42872 858
42873 858
42874 858
42875 858
42876 858
42877 858
42878 858
42879 858
42880 858
42881 858
42882 858
42883 858
42884 858
42885 858
42886 858
42887 858
42888 858
42889 858
42890 858
42891 858
42892 858
42893 858
42894 858
42895 858
42896 858
42897 858
42898 858
42899 858
42900 858
42901 859
42902 859
42903 859
42904 859
42905 859
42906 859
42907 859
42908 859
42909 859
42910 859
42911 859
42912 859
42913 859
42914 859
42915 859
42916 859
42917 859
42918 859
42919 859
42920 859
42921 859
42922 859
42923 859
42924 859
42925 859
42926 859
42927 859
42928 859
42929 859
42930 859
42931 859
42932 859
42933 859
42934 859
42935 859
42936 859
42937 859
42938 859
42939 859
42940 859
42941 859
42942 859
42943 859
42944 859
42945 859
42946 859
42947 859
42948 859
42949 859
42950 859
42951 860
42952 860
42953 860
42954 860
42955 860
42956 860
42957 860
42958 860
42959 860
42960 860
42961 860
42962 860
42963 860
42964 860
42965 860
42966 860
42967 860
42968 860
42969 860
42970 860
42971 860
42972 860
42973 860
42974 860
42975 860
42976 860
42977 860
42978 860
42979 860
42980 860
42981 860
42982 860
42983 860
42984 860
42985 860
42986 860
42987 860
42988 860
42989 860
42990 860
42991 860
42992 860
42993 860
42994 860
42995 860
42996 860
42997 860
42998 860
42999 860
43000 860
43001 861
43002 861
43003 861
43004 861
43005 861
43006 861
43007 861
43008 861
43009 861
43010 861
43011 861
43012 861
43013 861
43014 861
43015 861
43016 861
43017 861
43018 861
43019 861
43020 861
43021 861
43022 861
43023 861
43024 861
43025 861
43026 861
43027 861
43028 861
43029 861
43030 861
43031 861
43032 861
43033 861
43034 861
43035 861
43036 861
43037 861
43038 861
43039 861
43040 861
43041 861
43042 861
43043 861
43044 861
43045 861
43046 861
43047 861
43048 861
43049 861
43050 861
43051 862
43052 862
43053 862
43054 862
43055 862
43056 862
43057 862
43058 862
43059 862
43060 862
43061 862
43062 862
43063 862
43064 862
43065 862
43066 862
43067 862
43068 862
43069 862
43070 862
43071 862
43072 862
43073 862
43074 862
43075 862
43076 862
43077 862
43078 862
43079 862
43080 862
43081 862
43082 862
43083 862
43084 862
43085 862
43086 862
43087 862
43088 862
43089 862
43090 862
43091 862
43092 862
43093 862
43094 862
43095 862
43096 862
43097 862
43098 862
43099 862
43100 862
43101 863
43102 863
43103 863
43104 863
43105 863
43106 863
43107 863
43108 863
43109 863
43110 863
43111 863
43112 863
43113 863
43114 863
43115 863
43116 863
43117 863
43118 863
43119 863
43120 863
43121 863
43122 863
43123 863
43124 863
43125 863
43126 863
43127 863
43128 863
43129 863
43130 863
43131 863
43132 863
43133 863
43134 863
43135 863
43136 863
43137 863
43138 863
43139 863
43140 863
43141 863
43142 863
43143 863
43144 863
43145 863
43146 863
43147 863
43148 863
43149 863
43150 863
43151 864
43152 864
43153 864
43154 864
43155 864
43156 864
43157 864
43158 864
43159 864
43160 864
43161 864
43162 864
43163 864
43164 864
43165 864
43166 864
43167 864
43168 864
43169 864
43170 864
43171 864
43172 864
43173 864
43174 864
43175 864
43176 864
43177 864
43178 864
43179 864
43180 864
43181 864
43182 864
43183 864
43184 864
43185 864
43186 864
43187 864
43188 864
43189 864
43190 864
43191 864
43192 864
43193 864
43194 864
43195 864
43196 864
43197 864
43198 864
43199 864
43200 864
43201 865
43202 865
43203 865
43204 865
43205 865
43206 865
43207 865
43208 865
43209 865
43210 865
43211 865
43212 865
43213 865
43214 865
43215 865
43216 865
43217 865
43218 865
43219 865
43220 865
43221 865
43222 865
43223 865
43224 865
43225 865
43226 865
43227 865
43228 865
43229 865
43230 865
43231 865
43232 865
43233 865
43234 865
43235 865
43236 865
43237 865
43238 865
43239 865
43240 865
43241 865
43242 865
43243 865
43244 865
43245 865
43246 865
43247 865
43248 865
43249 865
43250 865
43251 866
43252 866
43253 866
43254 866
43255 866
43256 866
43257 866
43258 866
43259 866
43260 866
43261 866
43262 866
43263 866
43264 866
43265 866
43266 866
43267 866
43268 866
43269 866
43270 866
43271 866
43272 866
43273 866
43274 866
43275 866
43276 866
43277 866
43278 866
43279 866
43280 866
43281 866
43282 866
43283 866
43284 866
43285 866
43286 866
43287 866
43288 866
43289 866
43290 866
43291 866
43292 866
43293 866
43294 866
43295 866
43296 866
43297 866
43298 866
43299 866
43300 866
43301 867
43302 867
43303 867
43304 867
43305 867
43306 867
43307 867
43308 867
43309 867
43310 867
43311 867
43312 867
43313 867
43314 867
43315 867
43316 867
43317 867
43318 867
43319 867
43320 867
43321 867
43322 867
43323 867
43324 867
43325 867
43326 867
43327 867
43328 867
43329 867
43330 867
43331 867
43332 867
43333 867
43334 867
43335 867
43336 867
43337 867
43338 867
43339 867
43340 867
43341 867
43342 867
43343 867
43344 867
43345 867
43346 867
43347 867
43348 867
43349 867
43350 867
43351 868
43352 868
43353 868
43354 868
43355 868
43356 868
43357 868
43358 868
43359 868
43360 868
43361 868
43362 868
43363 868
43364 868
43365 868
43366 868
43367 868
43368 868
43369 868
43370 868
43371 868
43372 868
43373 868
43374 868
43375 868
43376 868
43377 868
43378 868
43379 868
43380 868
43381 868
43382 868
43383 868
43384 868
43385 868
43386 868
43387 868
43388 868
43389 868
43390 868
43391 868
43392 868
43393 868
43394 868
43395 868
43396 868
43397 868
43398 868
43399 868
43400 868
43401 869
43402 869
43403 869
43404 869
43405 869
43406 869
43407 869
43408 869
43409 869
43410 869
43411 869
43412 869
43413 869
43414 869
43415 869
43416 869
43417 869
43418 869
43419 869
43420 869
43421 869
43422 869
43423 869
43424 869
43425 869
43426 869
43427 869
43428 869
43429 869
43430 869
43431 869
43432 869
43433 869
43434 869
43435 869
43436 869
43437 869
43438 869
43439 869
43440 869
43441 869
43442 869
43443 869
43444 869
43445 869
43446 869
43447 869
43448 869
43449 869
43450 869
43451 870
43452 870
43453 870
43454 870
43455 870
43456 870
43457 870
43458 870
43459 870
43460 870
43461 870
43462 870
43463 870
43464 870
43465 870
43466 870
43467 870
43468 870
43469 870
43470 870
43471 870
43472 870
43473 870
43474 870
43475 870
43476 870
43477 870
43478 870
43479 870
43480 870
43481 870
43482 870
43483 870
43484 870
43485 870
43486 870
43487 870
43488 870
43489 870
43490 870
43491 870
43492 870
43493 870
43494 870
43495 870
43496 870
43497 870
43498 870
43499 870
43500 870
43501 871
43502 871
43503 871
43504 871
43505 871
43506 871
43507 871
43508 871
43509 871
43510 871
43511 871
43512 871
43513 871
43514 871
43515 871
43516 871
43517 871
43518 871
43519 871
43520 871
43521 871
43522 871
43523 871
43524 871
43525 871
43526 871
43527 871
43528 871
43529 871
43530 871
43531 871
43532 871
43533 871
43534 871
43535 871
43536 871
43537 871
43538 871
43539 871
43540 871
43541 871
43542 871
43543 871
43544 871
43545 871
43546 871
43547 871
43548 871
43549 871
43550 871
43551 872
43552 872
43553 872
43554 872
43555 872
43556 872
43557 872
43558 872
43559 872
43560 872
43561 872
43562 872
43563 872
43564 872
43565 872
43566 872
43567 872
43568 872
43569 872
43570 872
43571 872
43572 872
43573 872
43574 872
43575 872
43576 872
43577 872
43578 872
43579 872
43580 872
43581 872
43582 872
43583 872
43584 872
43585 872
43586 872
43587 872
43588 872
43589 872
43590 872
43591 872
43592 872
43593 872
43594 872
43595 872
43596 872
43597 872
43598 872
43599 872
43600 872
43601 873
43602 873
43603 873
43604 873
43605 873
43606 873
43607 873
43608 873
43609 873
43610 873
43611 873
43612 873
43613 873
43614 873
43615 873
43616 873
43617 873
43618 873
43619 873
43620 873
43621 873
43622 873
43623 873
43624 873
43625 873
43626 873
43627 873
43628 873
43629 873
43630 873
43631 873
43632 873
43633 873
43634 873
43635 873
43636 873
43637 873
43638 873
43639 873
43640 873
43641 873
43642 873
43643 873
43644 873
43645 873
43646 873
43647 873
43648 873
43649 873
43650 873
43651 874
43652 874
43653 874
43654 874
43655 874
43656 874
43657 874
43658 874
43659 874
43660 874
43661 874
43662 874
43663 874
43664 874
43665 874
43666 874
43667 874
43668 874
43669 874
43670 874
43671 874
43672 874
43673 874
43674 874
43675 874
43676 874
43677 874
43678 874
43679 874
43680 874
43681 874
43682 874
43683 874
43684 874
43685 874
43686 874
43687 874
43688 874
43689 874
43690 874
43691 874
43692 874
43693 874
43694 874
43695 874
43696 874
43697 874
43698 874
43699 874
43700 874
43701 875
43702 875
43703 875
43704 875
43705 875
43706 875
43707 875
43708 875
43709 875
43710 875
43711 875
43712 875
43713 875
43714 875
43715 875
43716 875
43717 875
43718 875
43719 875
43720 875
43721 875
43722 875
43723 875
43724 875
43725 875
43726 875
43727 875
43728 875
43729 875
43730 875
43731 875
43732 875
43733 875
43734 875
43735 875
43736 875
43737 875
43738 875
43739 875
43740 875
43741 875
43742 875
43743 875
43744 875
43745 875
43746 875
43747 875
43748 875
43749 875
43750 875
43751 876
43752 876
43753 876
43754 876
43755 876
43756 876
43757 876
43758 876
43759 876
43760 876
43761 876
43762 876
43763 876
43764 876
43765 876
43766 876
43767 876
43768 876
43769 876
43770 876
43771 876
43772 876
43773 876
43774 876
43775 876
43776 876
43777 876
43778 876
43779 876
43780 876
43781 876
43782 876
43783 876
43784 876
43785 876
43786 876
43787 876
43788 876
43789 876
43790 876
43791 876
43792 876
43793 876
43794 876
43795 876
43796 876
43797 876
43798 876
43799 876
43800 876
43801 877
43802 877
43803 877
43804 877
43805 877
43806 877
43807 877
43808 877
43809 877
43810 877
43811 877
43812 877
43813 877
43814 877
43815 877
43816 877
43817 877
43818 877
43819 877
43820 877
43821 877
43822 877
43823 877
43824 877
43825 877
43826 877
43827 877
43828 877
43829 877
43830 877
43831 877
43832 877
43833 877
43834 877
43835 877
43836 877
43837 877
43838 877
43839 877
43840 877
43841 877
43842 877
43843 877
43844 877
43845 877
43846 877
43847 877
43848 877
43849 877
43850 877
43851 878
43852 878
43853 878
43854 878
43855 878
43856 878
43857 878
43858 878
43859 878
43860 878
43861 878
43862 878
43863 878
43864 878
43865 878
43866 878
43867 878
43868 878
43869 878
43870 878
43871 878
43872 878
43873 878
43874 878
43875 878
43876 878
43877 878
43878 878
43879 878
43880 878
43881 878
43882 878
43883 878
43884 878
43885 878
43886 878
43887 878
43888 878
43889 878
43890 878
43891 878
43892 878
43893 878
43894 878
43895 878
43896 878
43897 878
43898 878
43899 878
43900 878
43901 879
43902 879
43903 879
43904 879
43905 879
43906 879
43907 879
43908 879
43909 879
43910 879
43911 879
43912 879
43913 879
43914 879
43915 879
43916 879
43917 879
43918 879
43919 879
43920 879
43921 879
43922 879
43923 879
43924 879
43925 879
43926 879
43927 879
43928 879
43929 879
43930 879
43931 879
43932 879
43933 879
43934 879
43935 879
43936 879
43937 879
43938 879
43939 879
43940 879
43941 879
43942 879
43943 879
43944 879
43945 879
43946 879
43947 879
43948 879
43949 879
43950 879
43951 880
43952 880
43953 880
43954 880
43955 880
43956 880
43957 880
43958 880
43959 880
43960 880
43961 880
43962 880
43963 880
43964 880
43965 880
43966 880
43967 880
43968 880
43969 880
43970 880
43971 880
43972 880
43973 880
43974 880
43975 880
43976 880
43977 880
43978 880
43979 880
43980 880
43981 880
43982 880
43983 880
43984 880
43985 880
43986 880
43987 880
43988 880
43989 880
43990 880
43991 880
43992 880
43993 880
43994 880
43995 880
43996 880
43997 880
43998 880
43999 880
44000 880
44001 881
44002 881
44003 881
44004 881
44005 881
44006 881
44007 881
44008 881
44009 881
44010 881
44011 881
44012 881
44013 881
44014 881
44015 881
44016 881
44017 881
44018 881
44019 881
44020 881
44021 881
44022 881
44023 881
44024 881
44025 881
44026 881
44027 881
44028 881
44029 881
44030 881
44031 881
44032 881
44033 881
44034 881
44035 881
44036 881
44037 881
44038 881
44039 881
44040 881
44041 881
44042 881
44043 881
44044 881
44045 881
44046 881
44047 881
44048 881
44049 881
44050 881
44051 882
44052 882
44053 882
44054 882
44055 882
44056 882
44057 882
44058 882
44059 882
44060 882
44061 882
44062 882
44063 882
44064 882
44065 882
44066 882
44067 882
44068 882
44069 882
44070 882
44071 882
44072 882
44073 882
44074 882
44075 882
44076 882
44077 882
44078 882
44079 882
44080 882
44081 882
44082 882
44083 882
44084 882
44085 882
44086 882
44087 882
44088 882
44089 882
44090 882
44091 882
44092 882
44093 882
44094 882
44095 882
44096 882
44097 882
44098 882
44099 882
44100 882
44101 883
44102 883
44103 883
44104 883
44105 883
44106 883
44107 883
44108 883
44109 883
44110 883
44111 883
44112 883
44113 883
44114 883
44115 883
44116 883
44117 883
44118 883
44119 883
44120 883
44121 883
44122 883
44123 883
44124 883
44125 883
44126 883
44127 883
44128 883
44129 883
44130 883
44131 883
44132 883
44133 883
44134 883
44135 883
44136 883
44137 883
44138 883
44139 883
44140 883
44141 883
44142 883
44143 883
44144 883
44145 883
44146 883
44147 883
44148 883
44149 883
44150 883
44151 884
44152 884
44153 884
44154 884
44155 884
44156 884
44157 884
44158 884
44159 884
44160 884
44161 884
44162 884
44163 884
44164 884
44165 884
44166 884
44167 884
44168 884
44169 884
44170 884
44171 884
44172 884
44173 884
44174 884
44175 884
44176 884
44177 884
44178 884
44179 884
44180 884
44181 884
44182 884
44183 884
44184 884
44185 884
44186 884
44187 884
44188 884
44189 884
44190 884
44191 884
44192 884
44193 884
44194 884
44195 884
44196 884
44197 884
44198 884
44199 884
44200 884
44201 885
44202 885
44203 885
44204 885
44205 885
44206 885
44207 885
44208 885
44209 885
44210 885
44211 885
44212 885
44213 885
44214 885
44215 885
44216 885
44217 885
44218 885
44219 885
44220 885
44221 885
44222 885
44223 885
44224 885
44225 885
44226 885
44227 885
44228 885
44229 885
44230 885
44231 885
44232 885
44233 885
44234 885
44235 885
44236 885
44237 885
44238 885
44239 885
44240 885
44241 885
44242 885
44243 885
44244 885
44245 885
44246 885
44247 885
44248 885
44249 885
44250 885
44251 886
44252 886
44253 886
44254 886
44255 886
44256 886
44257 886
44258 886
44259 886
44260 886
44261 886
44262 886
44263 886
44264 886
44265 886
44266 886
44267 886
44268 886
44269 886
44270 886
44271 886
44272 886
44273 886
44274 886
44275 886
44276 886
44277 886
44278 886
44279 886
44280 886
44281 886
44282 886
44283 886
44284 886
44285 886
44286 886
44287 886
44288 886
44289 886
44290 886
44291 886
44292 886
44293 886
44294 886
44295 886
44296 886
44297 886
44298 886
44299 886
44300 886
44301 887
44302 887
44303 887
44304 887
44305 887
44306 887
44307 887
44308 887
44309 887
44310 887
44311 887
44312 887
44313 887
44314 887
44315 887
44316 887
44317 887
44318 887
44319 887
44320 887
44321 887
44322 887
44323 887
44324 887
44325 887
44326 887
44327 887
44328 887
44329 887
44330 887
44331 887
44332 887
44333 887
44334 887
44335 887
44336 887
44337 887
44338 887
44339 887
44340 887
44341 887
44342 887
44343 887
44344 887
44345 887
44346 887
44347 887
44348 887
44349 887
44350 887
44351 888
44352 888
44353 888
44354 888
44355 888
44356 888
44357 888
44358 888
44359 888
44360 888
44361 888
44362 888
44363 888
44364 888
44365 888
44366 888
44367 888
44368 888
44369 888
44370 888
44371 888
44372 888
44373 888
44374 888
44375 888
44376 888
44377 888
44378 888
44379 888
44380 888
44381 888
44382 888
44383 888
44384 888
44385 888
44386 888
44387 888
44388 888
44389 888
44390 888
44391 888
44392 888
44393 888
44394 888
44395 888
44396 888
44397 888
44398 888
44399 888
44400 888
44401 889
44402 889
44403 889
44404 889
44405 889
44406 889
44407 889
44408 889
44409 889
44410 889
44411 889
44412 889
44413 889
44414 889
44415 889
44416 889
44417 889
44418 889
44419 889
44420 889
44421 889
44422 889
44423 889
44424 889
44425 889
44426 889
44427 889
44428 889
44429 889
44430 889
44431 889
44432 889
44433 889
44434 889
44435 889
44436 889
44437 889
44438 889
44439 889
44440 889
44441 889
44442 889
44443 889
44444 889
44445 889
44446 889
44447 889
44448 889
44449 889
44450 889
44451 890
44452 890
44453 890
44454 890
44455 890
44456 890
44457 890
44458 890
44459 890
44460 890
44461 890
44462 890
44463 890
44464 890
44465 890
44466 890
44467 890
44468 890
44469 890
44470 890
44471 890
44472 890
44473 890
44474 890
44475 890
44476 890
44477 890
44478 890
44479 890
44480 890
44481 890
44482 890
44483 890
44484 890
44485 890
44486 890
44487 890
44488 890
44489 890
44490 890
44491 890
44492 890
44493 890
44494 890
44495 890
44496 890
44497 890
44498 890
44499 890
44500 890
44501 891
44502 891
44503 891
44504 891
44505 891
44506 891
44507 891
44508 891
44509 891
44510 891
44511 891
44512 891
44513 891
44514 891
44515 891
44516 891
44517 891
44518 891
44519 891
44520 891
44521 891
44522 891
44523 891
44524 891
44525 891
44526 891
44527 891
44528 891
44529 891
44530 891
44531 891
44532 891
44533 891
44534 891
44535 891
44536 891
44537 891
44538 891
44539 891
44540 891
44541 891
44542 891
44543 891
44544 891
44545 891
44546 891
44547 891
44548 891
44549 891
44550 891
44551 892
44552 892
44553 892
44554 892
44555 892
44556 892
44557 892
44558 892
44559 892
44560 892
44561 892
44562 892
44563 892
44564 892
44565 892
44566 892
44567 892
44568 892
44569 892
44570 892
44571 892
44572 892
44573 892
44574 892
44575 892
44576 892
44577 892
44578 892
44579 892
44580 892
44581 892
44582 892
44583 892
44584 892
44585 892
44586 892
44587 892
44588 892
44589 892
44590 892
44591 892
44592 892
44593 892
44594 892
44595 892
44596 892
44597 892
44598 892
44599 892
44600 892
44601 893
44602 893
44603 893
44604 893
44605 893
44606 893
44607 893
44608 893
44609 893
44610 893
44611 893
44612 893
44613 893
44614 893
44615 893
44616 893
44617 893
44618 893
44619 893
44620 893
44621 893
44622 893
44623 893
44624 893
44625 893
44626 893
44627 893
44628 893
44629 893
44630 893
44631 893
44632 893
44633 893
44634 893
44635 893
44636 893
44637 893
44638 893
44639 893
44640 893
44641 893
44642 893
44643 893
44644 893
44645 893
44646 893
44647 893
44648 893
44649 893
44650 893
44651 894
44652 894
44653 894
44654 894
44655 894
44656 894
44657 894
44658 894
44659 894
44660 894
44661 894
44662 894
44663 894
44664 894
44665 894
44666 894
44667 894
44668 894
44669 894
44670 894
44671 894
44672 894
44673 894
44674 894
44675 894
44676 894
44677 894
44678 894
44679 894
44680 894
44681 894
44682 894
44683 894
44684 894
44685 894
44686 894
44687 894
44688 894
44689 894
44690 894
44691 894
44692 894
44693 894
44694 894
44695 894
44696 894
44697 894
44698 894
44699 894
44700 894
44701 895
44702 895
44703 895
44704 895
44705 895
44706 895
44707 895
44708 895
44709 895
44710 895
44711 895
44712 895
44713 895
44714 895
44715 895
44716 895
44717 895
44718 895
44719 895
44720 895
44721 895
44722 895
44723 895
44724 895
44725 895
44726 895
44727 895
44728 895
44729 895
44730 895
44731 895
44732 895
44733 895
44734 895
44735 895
44736 895
44737 895
44738 895
44739 895
44740 895
44741 895
44742 895
44743 895
44744 895
44745 895
44746 895
44747 895
44748 895
44749 895
44750 895
44751 896
44752 896
44753 896
44754 896
44755 896
44756 896
44757 896
44758 896
44759 896
44760 896
44761 896
44762 896
44763 896
44764 896
44765 896
44766 896
44767 896
44768 896
44769 896
44770 896
44771 896
44772 896
44773 896
44774 896
44775 896
44776 896
44777 896
44778 896
44779 896
44780 896
44781 896
44782 896
44783 896
44784 896
44785 896
44786 896
44787 896
44788 896
44789 896
44790 896
44791 896
44792 896
44793 896
44794 896
44795 896
44796 896
44797 896
44798 896
44799 896
44800 896
44801 897
44802 897
44803 897
44804 897
44805 897
44806 897
44807 897
44808 897
44809 897
44810 897
44811 897
44812 897
44813 897
44814 897
44815 897
44816 897
44817 897
44818 897
44819 897
44820 897
44821 897
44822 897
44823 897
44824 897
44825 897
44826 897
44827 897
44828 897
44829 897
44830 897
44831 897
44832 897
44833 897
44834 897
44835 897
44836 897
44837 897
44838 897
44839 897
44840 897
44841 897
44842 897
44843 897
44844 897
44845 897
44846 897
44847 897
44848 897
44849 897
44850 897
44851 898
44852 898
44853 898
44854 898
44855 898
44856 898
44857 898
44858 898
44859 898
44860 898
44861 898
44862 898
44863 898
44864 898
44865 898
44866 898
44867 898
44868 898
44869 898
44870 898
44871 898
44872 898
44873 898
44874 898
44875 898
44876 898
44877 898
44878 898
44879 898
44880 898
44881 898
44882 898
44883 898
44884 898
44885 898
44886 898
44887 898
44888 898
44889 898
44890 898
44891 898
44892 898
44893 898
44894 898
44895 898
44896 898
44897 898
44898 898
44899 898
44900 898
44901 899
44902 899
44903 899
44904 899
44905 899
44906 899
44907 899
44908 899
44909 899
44910 899
44911 899
44912 899
44913 899
44914 899
44915 899
44916 899
44917 899
44918 899
44919 899
44920 899
44921 899
44922 899
44923 899
44924 899
44925 899
44926 899
44927 899
44928 899
44929 899
44930 899
44931 899
44932 899
44933 899
44934 899
44935 899
44936 899
44937 899
44938 899
44939 899
44940 899
44941 899
44942 899
44943 899
44944 899
44945 899
44946 899
44947 899
44948 899
44949 899
44950 899
44951 900
44952 900
44953 900
44954 900
44955 900
44956 900
44957 900
44958 900
44959 900
44960 900
44961 900
44962 900
44963 900
44964 900
44965 900
44966 900
44967 900
44968 900
44969 900
44970 900
44971 900
44972 900
44973 900
44974 900
44975 900
44976 900
44977 900
44978 900
44979 900
44980 900
44981 900
44982 900
44983 900
44984 900
44985 900
44986 900
44987 900
44988 900
44989 900
44990 900
44991 900
44992 900
44993 900
44994 900
44995 900
44996 900
44997 900
44998 900
44999 900
45000 900
ITEM: TIMESTEP
1
ITEM: NUMBER OF ATOMS
45000
ITEM: BOX BOUNDS pp pp pp
-1.0000000000000001e-01 6.0049999999999997e+01
2.9999999999999999e-01 5.1645498823200001e+01
-5.0000000000000000e-01 5.0000000000000000e-01
ITEM: ATOMS id mol
1 1
2 1
3 1
4 1
5 1
6 1
7 1
8 1
9 1
10 1
11 1
12 1
13 1
14 1
15 1
16 1
17 1
18 1
19 1
20 1
21 1
22 1
23 1
24 1
25 1
26 1
27 1
28 1
29 1
30 1
31 1
32 1
33 1
34 1
35 1
36 1
37 1
38 1
39 1
40 1
41 1
42 1
43 1
44 1
45 1
46 1
47 1
48 1
49 1
50 1
51 2
52 2
53 2
54 2
55 2
56 2
57 2
58 2
59 2
60 2
61 2
62 2
63 2
64 2
65 2
66 2
67 2
68 2
69 2
70 2
71 2
72 2
73 2
74 2
75 2
76 2
77 2
78 2
79 2
80 2
81 2
82 2
83 2
84 2
85 2
86 2
87 2
88 2
89 2
90 2
91 2
92 2
93 2
94 2
95 2
96 2
97 2
98 2
99 2
100 2
101 3
102 3
103 3
104 3
105 3
106 3
107 3
108 3
109 3
110 3
111 3
112 3
113 3
114 3
115 3
116 3
117 3
118 3
119 3
120 3
121 3
122 3
123 3
124 3
125 3
126 3
127 3
128 3
129 3
130 3
131 3
132 3
133 3
134 3
135 3
136 3
137 3
138 3
139 3
140 3
141 3
142 3
143 3
144 3
145 3
146 3
147 3
148 3
149 3
150 3
151 4
152 4
153 4
154 4
155 4
156 4
157 4
158 4
159 4
160 4
161 4
162 4
163 4
164 4
165 4
166 4
167 4
168 4
169 4
170 4
171 4
172 4
173 4
174 4
175 4
176 4
177 4
178 4
179 4
180 4
181 4
182 4
183 4
184 4
185 4
186 4
187 4
188 4
189 4
190 4
191 4
192 4
193 4
194 4
195 4
196 4
197 4
198 4
199 4
200 4
201 5
202 5
203 5
204 5
205 5
206 5
207 5
208 5
209 5
210 5
211 5
212 5
213 5
214 5
215 5
216 5
217 5
218 5
219 5
220 5
221 5
222 5
223 5
224 5
225 5
226 5
227 5
228 5
229 5
230 5
231 5
232 5
233 5
234 5
235 5
236 5
237 5
238 5
239 5
240 5
241 5
242 5
243 5
244 5
245 5
246 5
247 5
248 5
249 5
250 5
251 6
252 6
253 6
254 6
255 6
256 6
257 6
258 6
259 6
260 6
261 6
262 6
263 6
264 6
265 6
266 6
267 6
268 6
269 6
270 6
271 6
272 6
273 6
274 6
275 6
276 6
277 6
278 6
279 6
280 6
281 6
282 6
283 6
284 6
285 6
286 6
287 6
288 6
289 6
290 6
291 6
292 6
293 6
294 6
295 6
296 6
297 6
298 6
299 6
300 6
301 7
302 7
303 7
304 7
305 7
306 7
307 7
308 7
309 7
310 7
311 7
312 7
313 7
314 7
315 7
316 7
317 7
318 7
319 7
320 7
321 7
322 7
323 7
324 7
325 7
326 7
327 7
328 7
329 7
330 7
331 7
332 7
333 7
334 7
335 7
336 7
337 7
338 7
339 7
340 7
341 7
342 7
343 7
344 7
345 7
346 7
347 7
348 7
349 7
350 7
351 8
352 8
353 8
354 8
355 8
356 8
357 8
358 8
359 8
360 8
361 8
362 8
363 8
364 8
365 8
366 8
367 8
368 8
369 8
370 8
371 8
372 8
373 8
374 8
375 8
376 8
377 8
378 8
379 8
380 8
381 8
382 8
383 8
384 8
385 8
386 8
387 8
388 8
389 8
390 8
391 8
392 8
393 8
394 8
395 8
396 8
397 8
398 8
399 8
400 8
401 9
402 9
403 9
404 9
405 9
406 9
407 9
408 9
409 9
410 9
411 9
412 9
413 9
414 9
415 9
416 9
417 9
418 9
419 9
420 9
421 9
422 9
423 9
424 9
425 9
426 9
427 9
428 9
429 9
430 9
431 9
432 9
433 9
434 9
435 9
436 9
437 9
438 9
439 9
440 9
441 9
442 9
443 9
444 9
445 9
446 9
447 9
448 9
449 9
450 9
451 10
452 10
453 10
454 10
455 10
456 10
457 10
458 10
459 10
460 10
461 10
462 10
463 10
464 10
465 10
466 10
467 10
468 10
469 10
470 10
471 10
472 10
473 10
474 10
475 10
476 10
477 10
478 10
479 10
480 10
481 10
482 10
483 10
484 10
485 10
486 10
487 10
488 10
489 10
490 10
491 10
492 10
493 10
494 10
495 10
496 10
497 10
498 10
499 10
500 10
501 11
502 11
503 11
504 11
505 11
506 11
507 11
508 11
509 11
510 11
511 11
512 11
513 11
514 11
515 11
516 11
517 11
518 11
519 11
520 11
521 11
522 11
523 11
524 11
525 11
526 11
527 11
528 11
529 11
530 11
531 11
532 11
533 11
534 11
535 11
536 11
537 11
538 11
539 11
540 11
541 11
542 11
543 11
544 11
545 11
546 11
547 11
548 11
549 11
550 11
551 12
552 12
553 12
554 12
555 12
556 12
557 12
558 12
559 12
560 12
561 12
562 12
563 12
564 12
565 12
566 12
567 12
568 12
569 12
570 12
571 12
572 12
573 12
574 12
575 12
576 12
577 12
578 12
579 12
580 12
581 12
582 12
583 12
584 12
585 12
586 12
587 12
588 12
589 12
590 12
591 12
592 12
593 12
594 12
595 12
596 12
597 12
598 12
599 12
600 12
601 13
602 13
603 13
604 13
605 13
606 13
607 13
608 13
609 13
610 13
611 13
612 13
613 13
614 13
615 13
616 13
617 13
618 13
619 13
620 13
621 13
622 13
623 13
624 13
625 13
626 13
627 13
628 13
629 13
630 13
631 13
632 13
633 13
634 13
635 13
636 13
637 13
638 13
639 13
640 13
641 13
642 13
643 13
644 13
645 13
646 13
647 13
648 13
649 13
650 13
651 14
652 14
653 14
654 14
655 14
656 14
657 14
658 14
659 14
660 14
661 14
662 14
663 14
664 14
665 14
666 14
667 14
668 14
669 14
670 14
671 14
672 14
673 14
674 14
675 14
676 14
677 14
678 14
679 14
680 14
681 14
682 14
683 14
684 14
685 14
686 14
687 14
688 14
689 14
690 14
691 14
692 14
693 14
694 14
695 14
696 14
697 14
698 14
699 14
700 14
701 15
702 15
703 15
704 15
705 15
706 15
707 15
708 15
709 15
710 15
711 15
712 15
713 15
714 15
715 15
716 15
717 15
718 15
719 15
720 15
721 15
722 15
723 15
724 15
725 15
726 15
727 15
728 15
729 15
730 15
731 15
732 15
733 15
734 15
735 15
736 15
737 15
738 15
739 15
740 15
741 15
742 15
743 15
744 15
745 15
746 15
747 15
748 15
749 15
750 15
751 16
752 16
753 16
754 16
755 16
756 16
757 16
758 16
759 16
760 16
761 16
762 16
763 16
764 16
765 16
766 16
767 16
768 16
769 16
770 16
771 16
772 16
773 16
774 16
775 16
776 16
777 16
778 16
779 16
780 16
781 16
782 16
783 16
784 16
785 16
786 16
787 16
788 16
789 16
790 16
791 16
792 16
793 16
794 16
795 16
796 16
797 16
798 16
799 16
800 16
801 17
802 17
803 17
804 17
805 17
806 17
807 17
808 17
809 17
810 17
811 17
812 17
813 17
814 17
815 17
816 17
817 17
818 17
819 17
820 17
821 17
822 17
823 17
824 17
825 17
826 17
827 17
828 17
829 17
830 17
831 17
832 17
833 17
834 17
835 17
836 17
837 17
838 17
839 17
840 17
841 17
842 17
843 17
844 17
845 17
846 17
847 17
848 17
849 17
850 17
851 18
852 18
853 18
854 18
855 18
856 18
857 18
858 18
859 18
860 18
861 18
862 18
863 18
864 18
865 18
866 18
867 18
868 18
869 18
870 18
871 18
872 18
873 18
874 18
875 18
876 18
877 18
878 18
879 18
880 18
881 18
882 18
883 18
884 18
885 18
886 18
887 18
888 18
889 18
890 18
891 18
892 18
893 18
894 18
895 18
896 18
897 18
898 18
899 18
900 18
901 19
902 19
903 19
904 19
905 19
906 19
907 19
908 19
909 19
910 19
911 19
912 19
913 19
914 19
915 19
916 19
917 19
918 19
919 19
920 19
921 19
922 19
923 19
924 19
925 19
926 19
927 19
928 19
929 19
930 19
931 19
932 19
933 19
934 19
935 19
936 19
937 19
938 19
939 19
940 19
941 19
942 19
943 19
944 19
945 19
946 19
947 19
948 19
949 19
950 19
951 20
952 20
953 20
954 20
955 20
956 20
957 20
958 20
959 20
960 20
961 20
962 20
963 20
964 20
965 20
966 20
967 20
968 20
969 20
970 20
971 20
972 20
973 20
974 20
975 20
976 20
977 20
978 20
979 20
980 20
981 20
982 20
983 20
984 20
985 20
986 20
987 20
988 20
989 20
990 20
991 20
992 20
993 20
994 20
995 20
996 20
997 20
998 20
999 20
1000 20
1001 21
1002 21
1003 21
1004 21
1005 21
1006 21
1007 21
1008 21
1009 21
1010 21
1011 21
1012 21
1013 21
1014 21
1015 21
1016 21
1017 21
1018 21
1019 21
1020 21
1021 21
1022 21
1023 21
1024 21
1025 21
1026 21
1027 21
1028 21
1029 21
1030 21
1031 21
1032 21
1033 21
1034 21
1035 21
1036 21
1037 21
1038 21
1039 21
1040 21
1041 21
1042 21
1043 21
1044 21
1045 21
1046 21
1047 21
1048 21
1049 21
1050 21
1051 22
1052 22
1053 22
1054 22
1055 22
1056 22
1057 22
1058 22
1059 22
1060 22
1061 22
1062 22
1063 22
1064 22
1065 22
1066 22
1067 22
1068 22
1069 22
1070 22
1071 22
1072 22
1073 22
1074 22
1075 22
1076 22
1077 22
1078 22
1079 22
1080 22
1081 22
1082 22
1083 22
1084 22
1085 22
1086 22
1087 22
1088 22
1089 22
1090 22
1091 22
1092 22
1093 22
1094 22
1095 22
1096 22
1097 22
1098 22
1099 22
1100 22
1101 23
1102 23
1103 23
1104 23
1105 23
1106 23
1107 23
1108 23
1109 23
1110 23
1111 23
1112 23
1113 23
1114 23
1115 23
1116 23
1117 23
1118 23
1119 23
1120 23
1121 23
1122 23
1123 23
1124 23
1125 23
1126 23
1127 23
1128 23
1129 23
1130 23
1131 23
1132 23
1133 23
1134 23
1135 23
1136 23
1137 23
1138 23
1139 23
1140 23
1141 23
1142 23
1143 23
1144 23
1145 23
1146 23
1147 23
1148 23
1149 23
1150 23
1151 24
1152 24
1153 24
1154 24
1155 24
1156 24
1157 24
1158 24
1159 24
1160 24
1161 24
1162 24
1163 24
1164 24
1165 24
1166 24
1167 24
1168 24
1169 24
1170 24
1171 24
1172 24
1173 24
1174 24
1175 24
1176 24
1177 24
1178 24
1179 24
1180 24
1181 24
1182 24
1183 24
1184 24
1185 24
1186 24
1187 24
1188 24
1189 24
1190 24
1191 24
1192 24
1193 24
1194 24
1195 24
1196 24
1197 24
1198 24
1199 24
1200 24
1201 25
1202 25
1203 25
1204 25
1205 25
1206 25
1207 25
1208 25
1209 25
1210 25
1211 25
1212 25
1213 25
1214 25
1215 25
1216 25
1217 25
1218 25
1219 25
1220 25
1221 25
1222 25
1223 25
1224 25
1225 25
1226 25
1227 25
1228 25
1229 25
1230 25
1231 25
1232 25
1233 25
1234 25
1235 25
1236 25
1237 25
1238 25
1239 25
1240 25
1241 25
1242 25
1243 25
1244 25
1245 25
1246 25
1247 25
1248 25
1249 25
1250 25
1251 26
1252 26
1253 26
1254 26
1255 26
1256 26
1257 26
1258 26
1259 26
1260 26
1261 26
1262 26
1263 26
1264 26
1265 26
1266 26
1267 26
1268 26
1269 26
1270 26
1271 26
1272 26
1273 26
1274 26
1275 26
1276 26
1277 26
1278 26
1279 26
1280 26
1281 26
1282 26
1283 26
1284 26
1285 26
1286 26
1287 26
1288 26
1289 26
1290 26
1291 26
1292 26
1293 26
1294 26
1295 26
1296 26
1297 26
1298 26
1299 26
1300 26
1301 27
1302 27
1303 27
1304 27
1305 27
1306 27
1307 27
1308 27
1309 27
1310 27
1311 27
1312 27
1313 27
1314 27
1315 27
1316 27
1317 27
1318 27
1319 27
1320 27
1321 27
1322 27
1323 27
1324 27
1325 27
1326 27
1327 27
1328 27
1329 27
1330 27
1331 27
1332 27
1333 27
1334 27
1335 27
1336 27
1337 27
1338 27
1339 27
1340 27
1341 27
1342 27
1343 27
1344 27
1345 27
1346 27
1347 27
1348 27
1349 27
1350 27
1351 28
1352 28
1353 28
1354 28
1355 28
1356 28
1357 28
1358 28
1359 28
1360 28
1361 28
1362 28
1363 28
1364 28
1365 28
1366 28
1367 28
1368 28
1369 28
1370 28
1371 28
1372 28
1373 28
1374 28
1375 28
1376 28
1377 28
1378 28
1379 28
1380 28
1381 28
1382 28
1383 28
1384 28
1385 28
1386 28
1387 28
1388 28
1389 28
1390 28
1391 28
1392 28
1393 28
1394 28
1395 28
1396 28
1397 28
1398 28
1399 28
1400 28
1401 29
1402 29
1403 29
1404 29
1405 29
1406 29
1407 29
1408 29
1409 29
1410 29
1411 29
1412 29
1413 29
1414 29
1415 29
1416 29
1417 29
1418 29
1419 29
1420 29
1421 29
1422 29
1423 29
1424 29
1425 29
1426 29
1427 29
1428 29
1429 29
1430 29
1431 29
1432 29
1433 29
1434 29
1435 29
1436 29
1437 29
1438 29
1439 29
1440 29
1441 29
1442 29
1443 29
1444 29
1445 29
1446 29
1447 29
1448 29
1449 29
1450 29
1451 30
1452 30
1453 30
1454 30
1455 30
1456 30
1457 30
1458 30
1459 30
1460 30
1461 30
1462 30
1463 30
1464 30
1465 30
1466 30
1467 30
1468 30
1469 30
1470 30
1471 30
1472 30
1473 30
1474 30
1475 30
1476 30
1477 30
1478 30
1479 30
1480 30
1481 30
1482 30
1483 30
1484 30
1485 30
1486 30
1487 30
1488 30
1489 30
1490 30
1491 30
1492 30
1493 30
1494 30
1495 30
1496 30
1497 30
1498 30
1499 30
1500 30
1501 31
1502 31
1503 31
1504 31
1505 31
1506 31
1507 31
1508 31
1509 31
1510 31
1511 31
1512 31
1513 31
1514 31
1515 31
1516 31
1517 31
1518 31
1519 31
1520 31
1521 31
1522 31
1523 31
1524 31
1525 31
1526 31
1527 31
1528 31
1529 31
1530 31
1531 31
1532 31
1533 31
1534 31
1535 31
1536 31
1537 31
1538 31
1539 31
1540 31
1541 31
1542 31
1543 31
1544 31
1545 31
1546 31
1547 31
1548 31
1549 31
1550 31
1551 32
1552 32
1553 32
1554 32
1555 32
1556 32
1557 32
1558 32
1559 32
1560 32
1561 32
1562 32
1563 32
1564 32
1565 32
1566 32
1567 32
1568 32
1569 32
1570 32
1571 32
1572 32
1573 32
1574 32
1575 32
1576 32
1577 32
1578 32
1579 32
1580 32
1581 32
1582 32
1583 32
1584 32
1585 32
1586 32
1587 32
1588 32
1589 32
1590 32
1591 32
1592 32
1593 32
1594 32
1595 32
1596 32
1597 32
1598 32
1599 32
1600 32
1601 33
1602 33
1603 33
1604 33
1605 33
1606 33
1607 33
1608 33
1609 33
1610 33
1611 33
1612 33
1613 33
1614 33
1615 33
1616 33
1617 33
1618 33
1619 33
1620 33
1621 33
1622 33
1623 33
1624 33
1625 33
1626 33
1627 33
1628 33
1629 33
1630 33
1631 33
1632 33
1633 33
1634 33
1635 33
1636 33
1637 33
1638 33
1639 33
1640 33
1641 33
1642 33
1643 33
1644 33
1645 33
1646 33
1647 33
1648 33
1649 33
1650 33
1651 34
1652 34
1653 34
1654 34
1655 34
1656 34
1657 34
1658 34
1659 34
1660 34
1661 34
1662 34
1663 34
1664 34
1665 34
1666 34
1667 34
1668 34
1669 34
1670 34
1671 34
1672 34
1673 34
1674 34
1675 34
1676 34
1677 34
1678 34
1679 34
1680 34
1681 34
1682 34
1683 34
1684 34
1685 34
1686 34
1687 34
1688 34
1689 34
1690 34
1691 34
1692 34
1693 34
1694 34
1695 34
1696 34
1697 34
1698 34
1699 34
1700 34
1701 35
1702 35
1703 35
1704 35
1705 35
1706 35
1707 35
1708 35
1709 35
1710 35
1711 35
1712 35
1713 35
1714 35
1715 35
1716 35
1717 35
1718 35
1719 35
1720 35
1721 35
1722 35
1723 35
1724 35
1725 35
1726 35
1727 35
1728 35
1729 35
1730 35
1731 35
1732 35
1733 35
1734 35
1735 35
1736 35
1737 35
1738 35
1739 35
1740 35
1741 35
1742 35
1743 35
1744 35
1745 35
1746 35
1747 35
1748 35
1749 35
1750 35
1751 36
1752 36
1753 36
1754 36
1755 36
1756 36
1757 36
1758 36
1759 36
1760 36
1761 36
1762 36
1763 36
1764 36
1765 36
1766 36
1767 36
1768 36
1769 36
1770 36
1771 36
1772 36
1773 36
1774 36
1775 36
1776 36
1777 36
1778 36
1779 36
1780 36
1781 36
1782 36
1783 36
1784 36
1785 36
1786 36
1787 36
1788 36
1789 36
1790 36
1791 36
1792 36
1793 36
1794 36
1795 36
1796 36
1797 36
1798 36
1799 36
1800 36
1801 37
1802 37
1803 37
1804 37
1805 37
1806 37
1807 37
1808 37
1809 37
1810 37
1811 37
1812 37
1813 37
1814 37
1815 37
1816 37
1817 37
1818 37
1819 37
1820 37
1821 37
1822 37
1823 37
1824 37
1825 37
1826 37
1827 37
1828 37
1829 37
1830 37
1831 37
1832 37
1833 37
1834 37
1835 37
1836 37
1837 37
1838 37
1839 37
1840 37
1841 37
1842 37
1843 37
1844 37
1845 37
1846 37
1847 37
1848 37
1849 37
1850 37
1851 38
1852 38
1853 38
1854 38
1855 38
1856 38
1857 38
1858 38
1859 38
1860 38
1861 38
1862 38
1863 38
1864 38
1865 38
1866 38
1867 38
1868 38
1869 38
1870 38
1871 38
1872 38
1873 38
1874 38
1875 38
1876 38
1877 38
1878 38
1879 38
1880 38
1881 38
1882 38
1883 38
1884 38
1885 38
1886 38
1887 38
1888 38
1889 38
1890 38
1891 38
1892 38
1893 38
1894 38
1895 38
1896 38
1897 38
1898 38
1899 38
1900 38
1901 39
1902 39
1903 39
1904 39
1905 39
1906 39
1907 39
1908 39
1909 39
1910 39
1911 39
1912 39
1913 39
1914 39
1915 39
1916 39
1917 39
1918 39
1919 39
1920 39
1921 39
1922 39
1923 39
1924 39
1925 39
1926 39
1927 39
1928 39
1929 39
1930 39
1931 39
1932 39
1933 39
1934 39
1935 39
1936 39
1937 39
1938 39
1939 39
1940 39
1941 39
1942 39
1943 39
1944 39
1945 39
1946 39
1947 39
1948 39
1949 39
1950 39
1951 40
1952 40
1953 40
1954 40
1955 40
1956 40
1957 40
1958 40
1959 40
1960 40
1961 40
1962 40
1963 40
1964 40
1965 40
1966 40
1967 40
1968 40
1969 40
1970 40
1971 40
1972 40
1973 40
1974 40
1975 40
1976 40
1977 40
1978 40
1979 40
1980 40
1981 40
1982 40
1983 40
1984 40
1985 40
1986 40
1987 40
1988 40
1989 40
1990 40
1991 40
1992 40
1993 40
1994 40
1995 40
1996 40
1997 40
1998 40
1999 40
2000 40
2001 41
2002 41
2003 41
2004 41
2005 41
2006 41
2007 41
2008 41
2009 41
2010 41
2011 41
2012 41
2013 41
2014 41
2015 41
2016 41
2017 41
2018 41
2019 41
2020 41
2021 41
2022 41
2023 41
2024 41
2025 41
2026 41
2027 41
2028 41
2029 41
2030 41
2031 41
2032 41
2033 41
2034 41
2035 41
2036 41
2037 41
2038 41
2039 41
2040 41
2041 41
2042 41
2043 41
2044 41
2045 41
2046 41
2047 41
2048 41
2049 41
2050 41
2051 42
2052 42
2053 42
2054 42
2055 42
2056 42
2057 42
2058 42
2059 42
2060 42
2061 42
2062 42
2063 42
2064 42
2065 42
2066 42
2067 42
2068 42
2069 42
2070 42
2071 42
2072 42
2073 42
2074 42
2075 42
2076 42
2077 42
2078 42
2079 42
2080 42
2081 42
2082 42
2083 42
2084 42
2085 42
2086 42
2087 42
2088 42
2089 42
2090 42
2091 42
2092 42
2093 42
2094 42
2095 42
2096 42
2097 42
2098 42
2099 42
2100 42
2101 43
2102 43
2103 43
2104 43
2105 43
2106 43
2107 43
2108 43
2109 43
2110 43
2111 43
2112 43
2113 43
2114 43
2115 43
2116 43
2117 43
2118 43
2119 43
2120 43
2121 43
2122 43
2123 43
2124 43
2125 43
2126 43
2127 43
2128 43
2129 43
2130 43
2131 43
2132 43
2133 43
2134 43
2135 43
2136 43
2137 43
2138 43
2139 43
2140 43
2141 43
2142 43
2143 43
2144 43
2145 43
2146 43
2147 43
2148 43
2149 43
2150 43
2151 44
2152 44
2153 44
2154 44
2155 44
2156 44
2157 44
2158 44
2159 44
2160 44
2161 44
2162 44
2163 44
2164 44
2165 44
2166 44
2167 44
2168 44
2169 44
2170 44
2171 44
2172 44
2173 44
2174 44
2175 44
2176 44
2177 44
2178 44
2179 44
2180 44
2181 44
2182 44
2183 44
2184 44
2185 44
2186 44
2187 44
2188 44
2189 44
2190 44
2191 44
2192 44
2193 44
2194 44
2195 44
2196 44
2197 44
2198 44
2199 44
2200 44
2201 45
2202 45
2203 45
2204 45
2205 45
2206 45
2207 45
2208 45
2209 45
2210 45
2211 45
2212 45
2213 45
2214 45
2215 45
2216 45
2217 45
2218 45
2219 45
2220 45
2221 45
2222 45
2223 45
2224 45
2225 45
2226 45
2227 45
2228 45
2229 45
2230 45
2231 45
2232 45
2233 45
2234 45
2235 45
2236 45
2237 45
2238 45
2239 45
2240 45
2241 45
2242 45
2243 45
2244 45
2245 45
2246 45
2247 45
2248 45
2249 45
2250 45
2251 46
2252 46
2253 46
2254 46
2255 46
2256 46
2257 46
2258 46
2259 46
2260 46
2261 46
2262 46
2263 46
2264 46
2265 46
2266 46
2267 46
2268 46
2269 46
2270 46
2271 46
2272 46
2273 46
2274 46
2275 46
2276 46
2277 46
2278 46
2279 46
2280 46
2281 46
2282 46
2283 46
2284 46
2285 46
2286 46
2287 46
2288 46
2289 46
2290 46
2291 46
2292 46
2293 46
2294 46
2295 46
2296 46
2297 46
2298 46
2299 46
2300 46
2301 47
2302 47
2303 47
2304 47
2305 47
2306 47
2307 47
2308 47
2309 47
2310 47
2311 47
2312 47
2313 47
2314 47
2315 47
2316 47
2317 47
2318 47
2319 47
2320 47
2321 47
2322 47
2323 47
2324 47
2325 47
2326 47
2327 47
2328 47
2329 47
2330 47
2331 47
2332 47
2333 47
2334 47
2335 47
2336 47
2337 47
2338 47
2339 47
2340 47
2341 47
2342 47
2343 47
2344 47
2345 47
2346 47
2347 47
2348 47
2349 47
2350 47
2351 48
2352 48
2353 48
2354 48
2355 48
2356 48
2357 48
2358 48
2359 48
2360 48
2361 48
2362 48
2363 48
2364 48
2365 48
2366 48
2367 48
2368 48
2369 48
2370 48
2371 48
2372 48
2373 48
2374 48
2375 48
2376 48
2377 48
2378 48
2379 48
2380 48
2381 48
2382 48
2383 48
2384 48
2385 48
2386 48
2387 48
2388 48
2389 48
2390 48
2391 48
2392 48
2393 48
2394 48
2395 48
2396 48
2397 48
2398 48
2399 48
2400 48
2401 49
2402 49
2403 49
2404 49
2405 49
2406 49
2407 49
2408 49
2409 49
2410 49
2411 49
2412 49
2413 49
2414 49
2415 49
2416 49
2417 49
2418 49
2419 49
2420 49
2421 49
2422 49
2423 49
2424 49
2425 49
2426 49
2427 49
2428 49
2429 49
2430 49
2431 49
2432 49
2433 49
2434 49
2435 49
2436 49
2437 49
2438 49
2439 49
2440 49
2441 49
2442 49
2443 49
2444 49
2445 49
2446 49
2447 49
2448 49
2449 49
2450 49
2451 50
2452 50
2453 50
2454 50
2455 50
2456 50
2457 50
2458 50
2459 50
2460 50
2461 50
2462 50
2463 50
2464 50
2465 50
2466 50
2467 50
2468 50
2469 50
2470 50
2471 50
2472 50
2473 50
2474 50
2475 50
2476 50
2477 50
2478 50
2479 50
2480 50
2481 50
2482 50
2483 50
2484 50
2485 50
2486 50
2487 50
2488 50
2489 50
2490 50
2491 50
2492 50
2493 50
2494 50
2495 50
2496 50
2497 50
2498 50
2499 50
2500 50
2501 51
2502 51
2503 51
2504 51
2505 51
2506 51
2507 51
2508 51
2509 51
2510 51
2511 51
2512 51
2513 51
2514 51
2515 51
2516 51
2517 51
2518 51
2519 51
2520 51
2521 51
2522 51
2523 51
2524 51
2525 51
2526 51
2527 51
2528 51
2529 51
2530 51
2531 51
2532 51
2533 51
2534 51
2535 51
2536 51
2537 51
2538 51
2539 51
2540 51
2541 51
2542 51
2543 51
2544 51
2545 51
2546 51
2547 51
2548 51
2549 51
2550 51
2551 52
2552 52
2553 52
2554 52
2555 52
2556 52
2557 52
2558 52
2559 52
2560 52
2561 52
2562 52
2563 52
2564 52
2565 52
2566 52
2567 52
2568 52
2569 52
2570 52
2571 52
2572 52
2573 52
2574 52
2575 52
2576 52
2577 52
2578 52
2579 52
2580 52
2581 52
2582 52
2583 52
2584 52
2585 52
2586 52
2587 52
2588 52
2589 52
2590 52
2591 52
2592 52
2593 52
2594 52
2595 52
2596 52
2597 52
2598 52
2599 52
2600 52
2601 53
2602 53
2603 53
2604 53
2605 53
2606 53
2607 53
2608 53
2609 53
2610 53
2611 53
2612 53
2613 53
2614 53
2615 53
2616 53
2617 53
2618 53
2619 53
2620 53
2621 53
2622 53
2623 53
2624 53
2625 53
2626 53
2627 53
2628 53
2629 53
2630 53
2631 53
2632 53
2633 53
2634 53
2635 53
2636 53
2637 53
2638 53
2639 53
2640 53
2641 53
2642 53
2643 53
2644 53
2645 53
2646 53
2647 53
2648 53
2649 53
2650 53
2651 54
2652 54
2653 54
2654 54
2655 54
2656 54
2657 54
2658 54
2659 54
2660 54
2661 54
2662 54
2663 54
2664 54
2665 54
2666 54
2667 54
2668 54
2669 54
2670 54
2671 54
2672 54
2673 54
2674 54
2675 54
2676 54
2677 54
2678 54
2679 54
2680 54
2681 54
2682 54
2683 54
2684 54
2685 54
2686 54
2687 54
2688 54
2689 54
2690 54
2691 54
2692 54
2693 54
2694 54
2695 54
2696 54
2697 54
2698 54
2699 54
2700 54
2701 55
2702 55
2703 55
2704 55
2705 55
2706 55
2707 55
2708 55
2709 55
2710 55
2711 55
2712 55
2713 55
2714 55
2715 55
2716 55
2717 55
2718 55
2719 55
2720 55
2721 55
2722 55
2723 55
2724 55
2725 55
2726 55
2727 55
2728 55
2729 55
2730 55
2731 55
2732 55
2733 55
2734 55
2735 55
2736 55
2737 55
2738 55
2739 55
2740 55
2741 55
2742 55
2743 55
2744 55
2745 55
2746 55
2747 55
2748 55
2749 55
2750 55
2751 56
2752 56
2753 56
2754 56
2755 56
2756 56
2757 56
2758 56
2759 56
2760 56
2761 56
2762 56
2763 56
2764 56
2765 56
2766 56
2767 56
2768 56
2769 56
2770 56
2771 56
2772 56
2773 56
2774 56
2775 56
2776 56
2777 56
2778 56
2779 56
2780 56
2781 56
2782 56
2783 56
2784 56
2785 56
2786 56
2787 56
2788 56
2789 56
2790 56
2791 56
2792 56
2793 56
2794 56
2795 56
2796 56
2797 56
2798 56
2799 56
2800 56
2801 57
2802 57
2803 57
2804 57
2805 57
2806 57
2807 57
2808 57
2809 57
2810 57
2811 57
2812 57
2813 57
2814 57
2815 57
2816 57
2817 57
2818 57
2819 57
2820 57
2821 57
2822 57
2823 57
2824 57
2825 57
2826 57
2827 57
2828 57
2829 57
2830 57
2831 57
2832 57
2833 57
2834 57
2835 57
2836 57
2837 57
2838 57
2839 57
2840 57
2841 57
2842 57
2843 57
2844 57
2845 57
2846 57
2847 57
2848 57
2849 57
2850 57
2851 58
2852 58
2853 58
2854 58
2855 58
2856 58
2857 58
2858 58
2859 58
2860 58
2861 58
2862 58
2863 58
2864 58
2865 58
2866 58
2867 58
2868 58
2869 58
2870 58
2871 58
2872 58
2873 58
2874 58
2875 58
2876 58
2877 58
2878 58
2879 58
2880 58
2881 58
2882 58
2883 58
2884 58
2885 58
2886 58
2887 58
2888 58
2889 58
2890 58
2891 58
2892 58
2893 58
2894 58
2895 58
2896 58
2897 58
2898 58
2899 58
2900 58
2901 59
2902 59
2903 59
2904 59
2905 59
2906 59
2907 59
2908 59
2909 59
2910 59
2911 59
2912 59
2913 59
2914 59
2915 59
2916 59
2917 59
2918 59
2919 59
2920 59
2921 59
2922 59
2923 59
2924 59
2925 59
2926 59
2927 59
2928 59
2929 59
2930 59
2931 59
2932 59
2933 59
2934 59
2935 59
2936 59
2937 59
2938 59
2939 59
2940 59
2941 59
2942 59
2943 59
2944 59
2945 59
2946 59
2947 59
2948 59
2949 59
2950 59
2951 60
2952 60
2953 60
2954 60
2955 60
2956 60
2957 60
2958 60
2959 60
2960 60
2961 60
2962 60
2963 60
2964 60
2965 60
2966 60
2967 60
2968 60
2969 60
2970 60
2971 60
2972 60
2973 60
2974 60
2975 60
2976 60
2977 60
2978 60
2979 60
2980 60
2981 60
2982 60
2983 60
2984 60
2985 60
2986 60
2987 60
2988 60
2989 60
2990 60
2991 60
2992 60
2993 60
2994 60
2995 60
2996 60
2997 60
2998 60
2999 60
3000 60
3001 61
3002 61
3003 61
3004 61
3005 61
3006 61
3007 61
3008 61
3009 61
3010 61
3011 61
3012 61
3013 61
3014 61
3015 61
3016 61
3017 61
3018 61
3019 61
3020 61
3021 61
3022 61
3023 61
3024 61
3025 61
3026 61
3027 61
3028 61
3029 61
3030 61
3031 61
3032 61
3033 61
3034 61
3035 61
3036 61
3037 61
3038 61
3039 61
3040 61
3041 61
3042 61
3043 61
3044 61
3045 61
3046 61
3047 61
3048 61
3049 61
3050 61
3051 62
3052 62
3053 62
3054 62
3055 62
3056 62
3057 62
3058 62
3059 62
3060 62
3061 62
3062 62
3063 62
3064 62
3065 62
3066 62
3067 62
3068 62
3069 62
3070 62
3071 62
3072 62
3073 62
3074 62
3075 62
3076 62
3077 62
3078 62
3079 62
3080 62
3081 62
3082 62
3083 62
3084 62
3085 62
3086 62
3087 62
3088 62
3089 62
3090 62
3091 62
3092 62
3093 62
3094 62
3095 62
3096 62
3097 62
3098 62
3099 62
3100 62
3101 63
3102 63
3103 63
3104 63
3105 63
3106 63
3107 63
3108 63
3109 63
3110 63
3111 63
3112 63
3113 63
3114 63
3115 63
3116 63
3117 63
3118 63
3119 63
3120 63
3121 63
3122 63
3123 63
3124 63
3125 63
3126 63
3127 63
3128 63
3129 63
3130 63
3131 63
3132 63
3133 63
3134 63
3135 63
3136 63
3137 63
3138 63
3139 63
3140 63
3141 63
3142 63
3143 63
3144 63
3145 63
3146 63
3147 63
3148 63
3149 63
3150 63
3151 64
3152 64
3153 64
3154 64
3155 64
3156 64
3157 64
3158 64
3159 64
3160 64
3161 64
3162 64
3163 64
3164 64
3165 64
3166 64
3167 64
3168 64
3169 64
3170 64
3171 64
3172 64
3173 64
3174 64
3175 64
3176 64
3177 64
3178 64
3179 64
3180 64
3181 64
3182 64
3183 64
3184 64
3185 64
3186 64
3187 64
3188 64
3189 64
3190 64
3191 64
3192 64
3193 64
3194 64
3195 64
3196 64
3197 64
3198 64
3199 64
3200 64
3201 65
3202 65
3203 65
3204 65
3205 65
3206 65
3207 65
3208 65
3209 65
3210 65
3211 65
3212 65
3213 65
3214 65
3215 65
3216 65
3217 65
3218 65
3219 65
3220 65
3221 65
3222 65
3223 65
3224 65
3225 65
3226 65
3227 65
3228 65
3229 65
3230 65
3231 65
3232 65
3233 65
3234 65
3235 65
3236 65
3237 65
3238 65
3239 65
3240 65
3241 65
3242 65
3243 65
3244 65
3245 65
3246 65
3247 65
3248 65
3249 65
3250 65
3251 66
3252 66
3253 66
3254 66
3255 66
3256 66
3257 66
3258 66
3259 66
3260 66
3261 66
3262 66
3263 66
3264 66
3265 66
3266 66
3267 66
3268 66
3269 66
3270 66
3271 66
3272 66
3273 66
3274 66
3275 66
3276 66
3277 66
3278 66
3279 66
3280 66
3281 66
3282 66
3283 66
3284 66
3285 66
3286 66
3287 66
3288 66
3289 66
3290 66
3291 66
3292 66
3293 66
3294 66
3295 66
3296 66
3297 66
3298 66
3299 66
3300 66
3301 67
3302 67
3303 67
3304 67
3305 67
3306 67
3307 67
3308 67
3309 67
3310 67
3311 67
3312 67
3313 67
3314 67
3315 67
3316 67
3317 67
3318 67
3319 67
3320 67
3321 67
3322 67
3323 67
3324 67
3325 67
3326 67
3327 67
3328 67
3329 67
3330 67
3331 67
3332 67
3333 67
3334 67
3335 67
3336 67
3337 67
3338 67
3339 67
3340 67
3341 67
3342 67
3343 67
3344 67
3345 67
3346 67
3347 67
3348 67
3349 67
3350 67
3351 68
3352 68
3353 68
3354 68
3355 68
3356 68
3357 68
3358 68
3359 68
3360 68
3361 68
3362 68
3363 68
3364 68
3365 68
3366 68
3367 68
3368 68
3369 68
3370 68
3371 68
3372 68
3373 68
3374 68
3375 68
3376 68
3377 68
3378 68
3379 68
3380 68
3381 68
3382 68
3383 68
3384 68
3385 68
3386 68
3387 68
3388 68
3389 68
3390 68
3391 68
3392 68
3393 68
3394 68
3395 68
3396 68
3397 68
3398 68
3399 68
3400 68
3401 69
3402 69
3403 69
3404 69
3405 69
3406 69
3407 69
3408 69
3409 69
3410 69
3411 69
3412 69
3413 69
3414 69
3415 69
3416 69
3417 69
3418 69
3419 69
3420 69
3421 69
3422 69
3423 69
3424 69
3425 69
3426 69
3427 69
3428 69
3429 69
3430 69
3431 69
3432 69
3433 69
3434 69
3435 69
3436 69
3437 69
3438 69
3439 69
3440 69
3441 69
3442 69
3443 69
3444 69
3445 69
3446 69
3447 69
3448 69
3449 69
3450 69
3451 70
3452 70
3453 70
3454 70
3455 70
3456 70
3457 70
3458 70
3459 70
3460 70
3461 70
3462 70
3463 70
3464 70
3465 70
3466 70
3467 70
3468 70
3469 70
3470 70
3471 70
3472 70
3473 70
3474 70
3475 70
3476 70
3477 70
3478 70
3479 70
3480 70
3481 70
3482 70
3483 70
3484 70
3485 70
3486 70
3487 70
3488 70
3489 70
3490 70
3491 70
3492 70
3493 70
3494 70
3495 70
3496 70
3497 70
3498 70
3499 70
3500 70
3501 71
3502 71
3503 71
3504 71
3505 71
3506 71
3507 71
3508 71
3509 71
3510 71
3511 71
3512 71
3513 71
3514 71
3515 71
3516 71
3517 71
3518 71
3519 71
3520 71
3521 71
3522 71
3523 71
3524 71
3525 71
3526 71
3527 71
3528 71
3529 71
3530 71
3531 71
3532 71
3533 71
3534 71
3535 71
3536 71
3537 71
3538 71
3539 71
3540 71
3541 71
3542 71
3543 71
3544 71
3545 71
3546 71
3547 71
3548 71
3549 71
3550 71
3551 72
3552 72
3553 72
3554 72
3555 72
3556 72
3557 72
3558 72
3559 72
3560 72
3561 72
3562 72
3563 72
3564 72
3565 72
3566 72
3567 72
3568 72
3569 72
3570 72
3571 72
3572 72
3573 72
3574 72
3575 72
3576 72
3577 72
3578 72
3579 72
3580 72
3581 72
3582 72
3583 72
3584 72
3585 72
3586 72
3587 72
3588 72
3589 72
3590 72
3591 72
3592 72
3593 72
3594 72
3595 72
3596 72
3597 72
3598 72
3599 72
3600 72
3601 73
3602 73
3603 73
3604 73
3605 73
3606 73
3607 73
3608 73
3609 73
3610 73
3611 73
3612 73
3613 73
3614 73
3615 73
3616 73
3617 73
3618 73
3619 73
3620 73
3621 73
3622 73
3623 73
3624 73
3625 73
3626 73
3627 73
3628 73
3629 73
3630 73
3631 73
3632 73
3633 73
3634 73
3635 73
3636 73
3637 73
3638 73
3639 73
3640 73
3641 73
3642 73
3643 73
3644 73
3645 73
3646 73
3647 73
3648 73
3649 73
3650 73
3651 74
3652 74
3653 74
3654 74
3655 74
3656 74
3657 74
3658 74
3659 74
3660 74
3661 74
3662 74
3663 74
3664 74
3665 74
3666 74
3667 74
3668 74
3669 74
3670 74
3671 74
3672 74
3673 74
3674 74
3675 74
3676 74
3677 74
3678 74
3679 74
3680 74
3681 74
3682 74
3683 74
3684 74
3685 74
3686 74
3687 74
3688 74
3689 74
3690 74
3691 74
3692 74
3693 74
3694 74
3695 74
3696 74
3697 74
3698 74
3699 74
3700 74
3701 75
3702 75
3703 75
3704 75
3705 75
3706 75
3707 75
3708 75
3709 75
3710 75
3711 75
3712 75
3713 75
3714 75
3715 75
3716 75
3717 75
3718 75
3719 75
3720 75
3721 75
3722 75
3723 75
3724 75
3725 75
3726 75
3727 75
3728 75
3729 75
3730 75
3731 75
3732 75
3733 75
3734 75
3735 75
3736 75
3737 75
3738 75
3739 75
3740 75
3741 75
3742 75
3743 75
3744 75
3745 75
3746 75
3747 75
3748 75
3749 75
3750 75
3751 76
3752 76
3753 76
3754 76
3755 76
3756 76
3757 76
3758 76
3759 76
3760 76
3761 76
3762 76
3763 76
3764 76
3765 76
3766 76
3767 76
3768 76
3769 76
3770 76
3771 76
3772 76
3773 76
3774 76
3775 76
3776 76
3777 76
3778 76
3779 76
3780 76
3781 76
3782 76
3783 76
3784 76
3785 76
3786 76
3787 76
3788 76
3789 76
3790 76
3791 76
3792 76
3793 76
3794 76
3795 76
3796 76
3797 76
3798 76
3799 76
3800 76
3801 77
3802 77
3803 77
3804 77
3805 77
3806 77
3807 77
3808 77
3809 77
3810 77
3811 77
3812 77
3813 77
3814 77
3815 77
3816 77
3817 77
3818 77
3819 77
3820 77
3821 77
3822 77
3823 77
3824 77
3825 77
3826 77
3827 77
3828 77
3829 77
3830 77
3831 77
3832 77
3833 77
3834 77
3835 77
3836 77
3837 77
3838 77
3839 77
3840 77
3841 77
3842 77
3843 77
3844 77
3845 77
3846 77
3847 77
3848 77
3849 77
3850 77
3851 78
3852 78
3853 78
3854 78
3855 78
3856 78
3857 78
3858 78
3859 78
3860 78
3861 78
3862 78
3863 78
3864 78
3865 78
3866 78
3867 78
3868 78
3869 78
3870 78
3871 78
3872 78
3873 78
3874 78
3875 78
3876 78
3877 78
3878 78
3879 78
3880 78
3881 78
3882 78
3883 78
3884 78
3885 78
3886 78
3887 78
3888 78
3889 78
3890 78
3891 78
3892 78
3893 78
3894 78
3895 78
3896 78
3897 78
3898 78
3899 78
3900 78
3901 79
3902 79
3903 79
3904 79
3905 79
3906 79
3907 79
3908 79
3909 79
3910 79
3911 79
3912 79
3913 79
3914 79
3915 79
3916 79
3917 79
3918 79
3919 79
3920 79
3921 79
3922 79
3923 79
3924 79
3925 79
3926 79
3927 79
3928 79
3929 79
3930 79
3931 79
3932 79
3933 79
3934 79
3935 79
3936 79
3937 79
3938 79
3939 79
3940 79
3941 79
3942 79
3943 79
3944 79
3945 79
3946 79
3947 79
3948 79
3949 79
3950 79
3951 80
3952 80
3953 80
3954 80
3955 80
3956 80
3957 80
3958 80
3959 80
3960 80
3961 80
3962 80
3963 80
3964 80
3965 80
3966 80
3967 80
3968 80
3969 80
3970 80
3971 80
3972 80
3973 80
3974 80
3975 80
3976 80
3977 80
3978 80
3979 80
3980 80
3981 80
3982 80
3983 80
3984 80
3985 80
3986 80
3987 80
3988 80
3989 80
3990 80
3991 80
3992 80
3993 80
3994 80
3995 80
3996 80
3997 80
3998 80
3999 80
4000 80
4001 81
4002 81
4003 81
4004 81
4005 81
4006 81
4007 81
4008 81
4009 81
4010 81
4011 81
4012 81
4013 81
4014 81
4015 81
4016 81
4017 81
4018 81
4019 81
4020 81
4021 81
4022 81
4023 81
4024 81
4025 81
4026 81
4027 81
4028 81
4029 81
4030 81
4031 81
4032 81
4033 81
4034 81
4035 81
4036 81
4037 81
4038 81
4039 81
4040 81
4041 81
4042 81
4043 81
4044 81
4045 81
4046 81
4047 81
4048 81
4049 81
4050 81
4051 82
4052 82
4053 82
4054 82
4055 82
4056 82
4057 82
4058 82
4059 82
4060 82
4061 82
4062 82
4063 82
4064 82
4065 82
4066 82
4067 82
4068 82
4069 82
4070 82
4071 82
4072 82
4073 82
4074 82
4075 82
4076 82
4077 82
4078 82
4079 82
4080 82
4081 82
4082 82
4083 82
4084 82
4085 82
4086 82
4087 82
4088 82
4089 82
4090 82
4091 82
4092 82
4093 82
4094 82
4095 82
4096 82
4097 82
4098 82
4099 82
4100 82
4101 83
4102 83
4103 83
4104 83
4105 83
4106 83
4107 83
4108 83
4109 83
4110 83
4111 83
4112 83
4113 83
4114 83
4115 83
4116 83
4117 83
4118 83
4119 83
4120 83
4121 83
4122 83
4123 83
4124 83
4125 83
4126 83
4127 83
4128 83
4129 83
4130 83
4131 83
4132 83
4133 83
4134 83
4135 83
4136 83
4137 83
4138 83
4139 83
4140 83
4141 83
4142 83
4143 83
4144 83
4145 83
4146 83
4147 83
4148 83
4149 83
4150 83
4151 84
4152 84
4153 84
4154 84
4155 84
4156 84
4157 84
4158 84
4159 84
4160 84
4161 84
4162 84
4163 84
4164 84
4165 84
4166 84
4167 84
4168 84
4169 84
4170 84
4171 84
4172 84
4173 84
4174 84
4175 84
4176 84
4177 84
4178 84
4179 84
4180 84
4181 84
4182 84
4183 84
4184 84
4185 84
4186 84
4187 84
4188 84
4189 84
4190 84
4191 84
4192 84
4193 84
4194 84
4195 84
4196 84
4197 84
4198 84
4199 84
4200 84
4201 85
4202 85
4203 85
4204 85
4205 85
4206 85
4207 85
4208 85
4209 85
4210 85
4211 85
4212 85
4213 85
4214 85
4215 85
4216 85
4217 85
4218 85
4219 85
4220 85
4221 85
4222 85
4223 85
4224 85
4225 85
4226 85
4227 85
4228 85
4229 85
4230 85
4231 85
4232 85
4233 85
4234 85
4235 85
4236 85
4237 85
4238 85
4239 85
4240 85
4241 85
4242 85
4243 85
4244 85
4245 85
4246 85
4247 85
4248 85
4249 85
4250 85
4251 86
4252 86
4253 86
4254 86
4255 86
4256 86
4257 86
4258 86
4259 86
4260 86
4261 86
4262 86
4263 86
4264 86
4265 86
4266 86
4267 86
4268 86
4269 86
4270 86
4271 86
4272 86
4273 86
4274 86
4275 86
4276 86
4277 86
4278 86
4279 86
4280 86
4281 86
4282 86
4283 86
4284 86
4285 86
4286 86
4287 86
4288 86
4289 86
4290 86
4291 86
4292 86
4293 86
4294 86
4295 86
4296 86
4297 86
4298 86
4299 86
4300 86
4301 87
4302 87
4303 87
4304 87
4305 87
4306 87
4307 87
4308 87
4309 87
4310 87
4311 87
4312 87
4313 87
4314 87
4315 87
4316 87
4317 87
4318 87
4319 87
4320 87
4321 87
4322 87
4323 87
4324 87
4325 87
4326 87
4327 87
4328 87
4329 87
4330 87
4331 87
4332 87
4333 87
4334 87
4335 87
4336 87
4337 87
4338 87
4339 87
4340 87
4341 87
4342 87
4343 87
4344 87
4345 87
4346 87
4347 87
4348 87
4349 87
4350 87
4351 88
4352 88
4353 88
4354 88
4355 88
4356 88
4357 88
4358 88
4359 88
4360 88
4361 88
4362 88
4363 88
4364 88
4365 88
4366 88
4367 88
4368 88
4369 88
4370 88
4371 88
4372 88
4373 88
4374 88
4375 88
4376 88
4377 88
4378 88
4379 88
4380 88
4381 88
4382 88
4383 88
4384 88
4385 88
4386 88
4387 88
4388 88
4389 88
4390 88
4391 88
4392 88
4393 88
4394 88
4395 88
4396 88
4397 88
4398 88
4399 88
4400 88
4401 89
4402 89
4403 89
4404 89
4405 89
4406 89
4407 89
4408 89
4409 89
4410 89
4411 89
4412 89
4413 89
4414 89
4415 89
4416 89
4417 89
4418 89
4419 89
4420 89
4421 89
4422 89
4423 89
4424 89
4425 89
4426 89
4427 89
4428 89
4429 89
4430 89
4431 89
4432 89
4433 89
4434 89
4435 89
4436 89
4437 89
4438 89
4439 89
4440 89
4441 89
4442 89
4443 89
4444 89
4445 89
4446 89
4447 89
4448 89
4449 89
4450 89
4451 90
4452 90
4453 90
4454 90
4455 90
4456 90
4457 90
4458 90
4459 90
4460 90
4461 90
4462 90
4463 90
4464 90
4465 90
4466 90
4467 90
4468 90
4469 90
4470 90
4471 90
4472 90
4473 90
4474 90
4475 90
4476 90
4477 90
4478 90
4479 90
4480 90
4481 90
4482 90
4483 90
4484 90
4485 90
4486 90
4487 90
4488 90
4489 90
4490 90
4491 90
4492 90
4493 90
4494 90
4495 90
4496 90
4497 90
4498 90
4499 90
4500 90
4501 91
4502 91
4503 91
4504 91
4505 91
4506 91
4507 91
4508 91
4509 91
4510 91
4511 91
4512 91
4513 91
4514 91
4515 91
4516 91
4517 91
4518 91
4519 91
4520 91
4521 91
4522 91
4523 91
4524 91
4525 91
4526 91
4527 91
4528 91
4529 91
4530 91
4531 91
4532 91
4533 91
4534 91
4535 91
4536 91
4537 91
4538 91
4539 91
4540 91
4541 91
4542 91
4543 91
4544 91
4545 91
4546 91
4547 91
4548 91
4549 91
4550 91
4551 92
4552 92
4553 92
4554 92
4555 92
4556 92
4557 92
4558 92
4559 92
4560 92
4561 92
4562 92
4563 92
4564 92
4565 92
4566 92
4567 92
4568 92
4569 92
4570 92
4571 92
4572 92
4573 92
4574 92
4575 92
4576 92
4577 92
4578 92
4579 92
4580 92
4581 92
4582 92
4583 92
4584 92
4585 92
4586 92
4587 92
4588 92
4589 92
4590 92
4591 92
4592 92
4593 92
4594 92
4595 92
4596 92
4597 92
4598 92
4599 92
4600 92
4601 93
4602 93
4603 93
4604 93
4605 93
4606 93
4607 93
4608 93
4609 93
4610 93
4611 93
4612 93
4613 93
4614 93
4615 93
4616 93
4617 93
4618 93
4619 93
4620 93
4621 93
4622 93
4623 93
4624 93
4625 93
4626 93
4627 93
4628 93
4629 93
4630 93
4631 93
4632 93
4633 93
4634 93
4635 93
4636 93
4637 93
4638 93
4639 93
4640 93
4641 93
4642 93
4643 93
4644 93
4645 93
4646 93
4647 93
4648 93
4649 93
4650 93
4651 94
4652 94
4653 94
4654 94
4655 94
4656 94
4657 94
4658 94
4659 94
4660 94
4661 94
4662 94
4663 94
4664 94
4665 94
4666 94
4667 94
4668 94
4669 94
4670 94
4671 94
4672 94
4673 94
4674 94
4675 94
4676 94
4677 94
4678 94
4679 94
4680 94
4681 94
4682 94
4683 94
4684 94
4685 94
4686 94
4687 94
4688 94
4689 94
4690 94
4691 94
4692 94
4693 94
4694 94
4695 94
4696 94
4697 94
4698 94
4699 94
4700 94
4701 95
4702 95
4703 95
4704 95
4705 95
4706 95
4707 95
4708 95
4709 95
4710 95
4711 95
4712 95
4713 95
4714 95
4715 95
4716 95
4717 95
4718 95
4719 95
4720 95
4721 95
4722 95
4723 95
4724 95
4725 95
4726 95
4727 95
4728 95
4729 95
4730 95
4731 95
4732 95
4733 95
4734 95
4735 95
4736 95
4737 95
4738 95
4739 95
4740 95
4741 95
4742 95
4743 95
4744 95
4745 95
4746 95
4747 95
4748 95
4749 95
4750 95
4751 96
4752 96
4753 96
4754 96
4755 96
4756 96
4757 96
4758 96
4759 96
4760 96
4761 96
4762 96
4763 96
4764 96
4765 96
4766 96
4767 96
4768 96
4769 96
4770 96
4771 96
4772 96
4773 96
4774 96
4775 96
4776 96
4777 96
4778 96
4779 96
4780 96
4781 96
4782 96
4783 96
4784 96
4785 96
4786 96
4787 96
4788 96
4789 96
4790 96
4791 96
4792 96
4793 96
4794 96
4795 96
4796 96
4797 96
4798 96
4799 96
4800 96
4801 97
4802 97
4803 97
4804 97
4805 97
4806 97
4807 97
4808 97
4809 97
4810 97
4811 97
4812 97
4813 97
4814 97
4815 97
4816 97
4817 97
4818 97
4819 97
4820 97
4821 97
4822 97
4823 97
4824 97
4825 97
4826 97
4827 97
4828 97
4829 97
4830 97
4831 97
4832 97
4833 97
4834 97
4835 97
4836 97
4837 97
4838 97
4839 97
4840 97
4841 97
4842 97
4843 97
4844 97
4845 97
4846 97
4847 97
4848 97
4849 97
4850 97
4851 98
4852 98
4853 98
4854 98
4855 98
4856 98
4857 98
4858 98
4859 98
4860 98
4861 98
4862 98
4863 98
4864 98
4865 98
4866 98
4867 98
4868 98
4869 98
4870 98
4871 98
4872 98
4873 98
4874 98
4875 98
4876 98
4877 98
4878 98
4879 98
4880 98
4881 98
4882 98
4883 98
4884 98
4885 98
4886 98
4887 98
4888 98
4889 98
4890 98
4891 98
4892 98
4893 98
4894 98
4895 98
4896 98
4897 98
4898 98
4899 98
4900 98
4901 99
4902 99
4903 99
4904 99
4905 99
4906 99
4907 99
4908 99
4909 99
4910 99
4911 99
4912 99
4913 99
4914 99
4915 99
4916 99
4917 99
4918 99
4919 99
4920 99
4921 99
4922 99
4923 99
4924 99
4925 99
4926 99
4927 99
4928 99
4929 99
4930 99
4931 99
4932 99
4933 99
4934 99
4935 99
4936 99
4937 99
4938 99
4939 99
4940 99
4941 99
4942 99
4943 99
4944 99
4945 99
4946 99
4947 99
4948 99
4949 99
4950 99
4951 100
4952 100
4953 100
4954 100
4955 100
4956 100
4957 100
4958 100
4959 100
4960 100
4961 100
4962 100
4963 100
4964 100
4965 100
4966 100
4967 100
4968 100
4969 100
4970 100
4971 100
4972 100
4973 100
4974 100
4975 100
4976 100
4977 100
4978 100
4979 100
4980 100
4981 100
4982 100
4983 100
4984 100
4985 100
4986 100
4987 100
4988 100
4989 100
4990 100
4991 100
4992 100
4993 100
4994 100
4995 100
4996 100
4997 100
4998 100
4999 100
5000 100
5001 101
5002 101
5003 101
5004 101
5005 101
5006 101
5007 101
5008 101
5009 101
5010 101
5011 101
5012 101
5013 101
5014 101
5015 101
5016 101
5017 101
5018 101
5019 101
5020 101
5021 101
5022 101
5023 101
5024 101
5025 101
5026 101
5027 101
5028 101
5029 101
5030 101
5031 101
5032 101
5033 101
5034 101
5035 101
5036 101
5037 101
5038 101
5039 101
5040 101
5041 101
5042 101
5043 101
5044 101
5045 101
5046 101
5047 101
5048 101
5049 101
5050 101
5051 102
5052 102
5053 102
5054 102
5055 102
5056 102
5057 102
5058 102
5059 102
5060 102
5061 102
5062 102
5063 102
5064 102
5065 102
5066 102
5067 102
5068 102
5069 102
5070 102
5071 102
5072 102
5073 102
5074 102
5075 102
5076 102
5077 102
5078 102
5079 102
5080 102
5081 102
5082 102
5083 102
5084 102
5085 102
5086 102
5087 102
5088 102
5089 102
5090 102
5091 102
5092 102
5093 102
5094 102
5095 102
5096 102
5097 102
5098 102
5099 102
5100 102
5101 103
5102 103
5103 103
5104 103
5105 103
5106 103
5107 103
5108 103
5109 103
5110 103
5111 103
5112 103
5113 103
5114 103
5115 103
5116 103
5117 103
5118 103
5119 103
5120 103
5121 103
5122 103
5123 103
5124 103
5125 103
5126 103
5127 103
5128 103
5129 103
5130 103
5131 103
5132 103
5133 103
5134 103
5135 103
5136 103
5137 103
5138 103
5139 103
5140 103
5141 103
5142 103
5143 103
5144 103
5145 103
5146 103
5147 103
5148 103
5149 103
5150 103
5151 104
5152 104
5153 104
5154 104
5155 104
5156 104
5157 104
5158 104
5159 104
5160 104
5161 104
5162 104
5163 104
5164 104
5165 104
5166 104
5167 104
5168 104
5169 104
5170 104
5171 104
5172 104
5173 104
5174 104
5175 104
5176 104
5177 104
5178 104
5179 104
5180 104
5181 104
5182 104
5183 104
5184 104
5185 104
5186 104
5187 104
5188 104
5189 104
5190 104
5191 104
5192 104
5193 104
5194 104
5195 104
5196 104
5197 104
5198 104
5199 104
5200 104
5201 105
5202 105
5203 105
5204 105
5205 105
5206 105
5207 105
5208 105
5209 105
5210 105
5211 105
5212 105
5213 105
5214 105
5215 105
5216 105
5217 105
5218 105
5219 105
5220 105
5221 105
5222 105
5223 105
5224 105
5225 105
5226 105
5227 105
5228 105
5229 105
5230 105
5231 105
5232 105
5233 105
5234 105
5235 105
5236 105
5237 105
5238 105
5239 105
5240 105
5241 105
5242 105
5243 105
5244 105
5245 105
5246 105
5247 105
5248 105
5249 105
5250 105
5251 106
5252 106
5253 106
5254 106
5255 106
5256 106
5257 106
5258 106
5259 106
5260 106
5261 106
5262 106
5263 106
5264 106
5265 106
5266 106
5267 106
5268 106
5269 106
5270 106
5271 106
5272 106
5273 106
5274 106
5275 106
5276 106
5277 106
5278 106
5279 106
5280 106
5281 106
5282 106
5283 106
5284 106
5285 106
5286 106
5287 106
5288 106
5289 106
5290 106
5291 106
5292 106
5293 106
5294 106
5295 106
5296 106
5297 106
5298 106
5299 106
5300 106
5301 107
5302 107
5303 107
5304 107
5305 107
5306 107
5307 107
5308 107
5309 107
5310 107
5311 107
5312 107
5313 107
5314 107
5315 107
5316 107
5317 107
5318 107
5319 107
5320 107
5321 107
5322 107
5323 107
5324 107
5325 107
5326 107
5327 107
5328 107
5329 107
5330 107
5331 107
5332 107
5333 107
5334 107
5335 107
5336 107
5337 107
5338 107
5339 107
5340 107
5341 107
5342 107
5343 107
5344 107
5345 107
5346 107
5347 107
5348 107
5349 107
5350 107
5351 108
5352 108
5353 108
5354 108
5355 108
5356 108
5357 108
5358 108
5359 108
5360 108
5361 108
5362 108
5363 108
5364 108
5365 108
5366 108
5367 108
5368 108
5369 108
5370 108
5371 108
5372 108
5373 108
5374 108
5375 108
5376 108
5377 108
5378 108
5379 108
5380 108
5381 108
5382 108
5383 108
5384 108
5385 108
5386 108
5387 108
5388 108
5389 108
5390 108
5391 108
5392 108
5393 108
5394 108
5395 108
5396 108
5397 108
5398 108
5399 108
5400 108
5401 109
5402 109
5403 109
5404 109
5405 109
5406 109
5407 109
5408 109
5409 109
5410 109
5411 109
5412 109
5413 109
5414 109
5415 109
5416 109
5417 109
5418 109
5419 109
5420 109
5421 109
5422 109
5423 109
5424 109
5425 109
5426 109
5427 109
5428 109
5429 109
5430 109
5431 109
5432 109
5433 109
5434 109
5435 109
5436 109
5437 109
5438 109
5439 109
5440 109
5441 109
5442 109
5443 109
5444 109
5445 109
5446 109
5447 109
5448 109
5449 109
5450 109
5451 110
5452 110
5453 110
5454 110
5455 110
5456 110
5457 110
5458 110
5459 110
5460 110
5461 110
5462 110
5463 110
5464 110
5465 110
5466 110
5467 110
5468 110
5469 110
5470 110
5471 110
5472 110
5473 110
5474 110
5475 110
5476 110
5477 110
5478 110
5479 110
5480 110
5481 110
5482 110
5483 110
5484 110
5485 110
5486 110
5487 110
5488 110
5489 110
5490 110
5491 110
5492 110
5493 110
5494 110
5495 110
5496 110
5497 110
5498 110
5499 110
5500 110
5501 111
5502 111
5503 111
5504 111
5505 111
5506 111
5507 111
5508 111
5509 111
5510 111
5511 111
5512 111
5513 111
5514 111
5515 111
5516 111
5517 111
5518 111
5519 111
5520 111
5521 111
5522 111
5523 111
5524 111
5525 111
5526 111
5527 111
5528 111
5529 111
5530 111
5531 111
5532 111
5533 111
5534 111
5535 111
5536 111
5537 111
5538 111
5539 111
5540 111
5541 111
5542 111
5543 111
5544 111
5545 111
5546 111
5547 111
5548 111
5549 111
5550 111
5551 112
5552 112
5553 112
5554 112
5555 112
5556 112
5557 112
5558 112
5559 112
5560 112
5561 112
5562 112
5563 112
5564 112
5565 112
5566 112
5567 112
5568 112
5569 112
5570 112
5571 112
5572 112
5573 112
5574 112
5575 112
5576 112
5577 112
5578 112
5579 112
5580 112
5581 112
5582 112
5583 112
5584 112
5585 112
5586 112
5587 112
5588 112
5589 112
5590 112
5591 112
5592 112
5593 112
5594 112
5595 112
5596 112
5597 112
5598 112
5599 112
5600 112
5601 113
5602 113
5603 113
5604 113
5605 113
5606 113
5607 113
5608 113
5609 113
5610 113
5611 113
5612 113
5613 113
5614 113
5615 113
5616 113
5617 113
5618 113
5619 113
5620 113
5621 113
5622 113
5623 113
5624 113
5625 113
5626 113
5627 113
5628 113
5629 113
5630 113
5631 113
5632 113
5633 113
5634 113
5635 113
5636 113
5637 113
5638 113
5639 113
5640 113
5641 113
5642 113
5643 113
5644 113
5645 113
5646 113
5647 113
5648 113
5649 113
5650 113
5651 114
5652 114
5653 114
5654 114
5655 114
5656 114
5657 114
5658 114
5659 114
5660 114
5661 114
5662 114
5663 114
5664 114
5665 114
5666 114
5667 114
5668 114
5669 114
5670 114
5671 114
5672 114
5673 114
5674 114
5675 114
5676 114
5677 114
5678 114
5679 114
5680 114
5681 114
5682 114
5683 114
5684 114
5685 114
5686 114
5687 114
5688 114
5689 114
5690 114
5691 114
5692 114
5693 114
5694 114
5695 114
5696 114
5697 114
5698 114
5699 114
5700 114
5701 115
5702 115
5703 115
5704 115
5705 115
5706 115
5707 115
5708 115
5709 115
5710 115
5711 115
5712 115
5713 115
5714 115
5715 115
5716 115
5717 115
5718 115
5719 115
5720 115
5721 115
5722 115
5723 115
5724 115
5725 115
5726 115
5727 115
5728 115
5729 115
5730 115
5731 115
5732 115
5733 115
5734 115
5735 115
5736 115
5737 115
5738 115
5739 115
5740 115
5741 115
5742 115
5743 115
5744 115
5745 115
5746 115
5747 115
5748 115
5749 115
5750 115
5751 116
5752 116
5753 116
5754 116
5755 116
5756 116
5757 116
5758 116
5759 116
5760 116
5761 116
5762 116
5763 116
5764 116
5765 116
5766 116
5767 116
5768 116
5769 116
5770 116
5771 116
5772 116
5773 116
5774 116
5775 116
5776 116
5777 116
5778 116
5779 116
5780 116
5781 116
5782 116
5783 116
5784 116
5785 116
5786 116
5787 116
5788 116
5789 116
5790 116
5791 116
5792 116
5793 116
5794 116
5795 116
5796 116
5797 116
5798 116
5799 116
5800 116
5801 117
5802 117
5803 117
5804 117
5805 117
5806 117
5807 117
5808 117
5809 117
5810 117
5811 117
5812 117
5813 117
5814 117
5815 117
5816 117
5817 117
5818 117
5819 117
5820 117
5821 117
5822 117
5823 117
5824 117
5825 117
5826 117
5827 117
5828 117
5829 117
5830 117
5831 117
5832 117
5833 117
5834 117
5835 117
5836 117
5837 117
5838 117
5839 117
5840 117
5841 117
5842 117
5843 117
5844 117
5845 117
5846 117
5847 117
5848 117
5849 117
5850 117
5851 118
5852 118
5853 118
5854 118
5855 118
5856 118
5857 118
5858 118
5859 118
5860 118
5861 118
5862 118
5863 118
5864 118
5865 118
5866 118
5867 118
5868 118
5869 118
5870 118
5871 118
5872 118
5873 118
5874 118
5875 118
5876 118
5877 118
5878 118
5879 118
5880 118
5881 118
5882 118
5883 118
5884 118
5885 118
5886 118
5887 118
5888 118
5889 118
5890 118
5891 118
5892 118
5893 118
5894 118
5895 118
5896 118
5897 118
5898 118
5899 118
5900 118
5901 119
5902 119
5903 119
5904 119
5905 119
5906 119
5907 119
5908 119
5909 119
5910 119
5911 119
5912 119
5913 119
5914 119
5915 119
5916 119
5917 119
5918 119
5919 119
5920 119
5921 119
5922 119
5923 119
5924 119
5925 119
5926 119
5927 119
5928 119
5929 119
5930 119
5931 119
5932 119
5933 119
5934 119
5935 119
5936 119
5937 119
5938 119
5939 119
5940 119
5941 119
5942 119
5943 119
5944 119
5945 119
5946 119
5947 119
5948 119
5949 119
5950 119
5951 120
5952 120
5953 120
5954 120
5955 120
5956 120
5957 120
5958 120
5959 120
5960 120
5961 120
5962 120
5963 120
5964 120
5965 120
5966 120
5967 120
5968 120
5969 120
5970 120
5971 120
5972 120
5973 120
5974 120
5975 120
5976 120
5977 120
5978 120
5979 120
5980 120
5981 120
5982 120
5983 120
5984 120
5985 120
5986 120
5987 120
5988 120
5989 120
5990 120
5991 120
5992 120
5993 120
5994 120
5995 120
5996 120
5997 120
5998 120
5999 120
6000 120
6001 121
6002 121
6003 121
6004 121
6005 121
6006 121
6007 121
6008 121
6009 121
6010 121
6011 121
6012 121
6013 121
6014 121
6015 121
6016 121
6017 121
6018 121
6019 121
6020 121
6021 121
6022 121
6023 121
6024 121
6025 121
6026 121
6027 121
6028 121
6029 121
6030 121
6031 121
6032 121
6033 121
6034 121
6035 121
6036 121
6037 121
6038 121
6039 121
6040 121
6041 121
6042 121
6043 121
6044 121
6045 121
6046 121
6047 121
6048 121
6049 121
6050 121
6051 122
6052 122
6053 122
6054 122
6055 122
6056 122
6057 122
6058 122
6059 122
6060 122
6061 122
6062 122
6063 122
6064 122
6065 122
6066 122
6067 122
6068 122
6069 122
6070 122
6071 122
6072 122
6073 122
6074 122
6075 122
6076 122
6077 122
6078 122
6079 122
6080 122
6081 122
6082 122
6083 122
6084 122
6085 122
6086 122
6087 122
6088 122
6089 122
6090 122
6091 122
6092 122
6093 122
6094 122
6095 122
6096 122
6097 122
6098 122
6099 122
6100 122
6101 123
6102 123
6103 123
6104 123
6105 123
6106 123
6107 123
6108 123
6109 123
6110 123
6111 123
6112 123
6113 123
6114 123
6115 123
6116 123
6117 123
6118 123
6119 123
6120 123
6121 123
6122 123
6123 123
6124 123
6125 123
6126 123
6127 123
6128 123
6129 123
6130 123
6131 123
6132 123
6133 123
6134 123
6135 123
6136 123
6137 123
6138 123
6139 123
6140 123
6141 123
6142 123
6143 123
6144 123
6145 123
6146 123
6147 123
6148 123
6149 123
6150 123
6151 124
6152 124
6153 124
6154 124
6155 124
6156 124
6157 124
6158 124
6159 124
6160 124
6161 124
6162 124
6163 124
6164 124
6165 124
6166 124
6167 124
6168 124
6169 124
6170 124
6171 124
6172 124
6173 124
6174 124
6175 124
6176 124
6177 124
6178 124
6179 124
6180 124
6181 124
6182 124
6183 124
6184 124
6185 124
6186 124
6187 124
6188 124
6189 124
6190 124
6191 124
6192 124
6193 124
6194 124
6195 124
6196 124
6197 124
6198 124
6199 124
6200 124
6201 125
6202 125
6203 125
6204 125
6205 125
6206 125
6207 125
6208 125
6209 125
6210 125
6211 125
6212 125
6213 125
6214 125
6215 125
6216 125
6217 125
6218 125
6219 125
6220 125
6221 125
6222 125
6223 125
6224 125
6225 125
6226 125
6227 125
6228 125
6229 125
6230 125
6231 125
6232 125
6233 125
6234 125
6235 125
6236 125
6237 125
6238 125
6239 125
6240 125
6241 125
6242 125
6243 125
6244 125
6245 125
6246 125
6247 125
6248 125
6249 125
6250 125
6251 126
6252 126
6253 126
6254 126
6255 126
6256 126
6257 126
6258 126
6259 126
6260 126
6261 126
6262 126
6263 126
6264 126
6265 126
6266 126
6267 126
6268 126
6269 126
6270 126
6271 126
6272 126
6273 126
6274 126
6275 126
6276 126
6277 126
6278 126
6279 126
6280 126
6281 126
6282 126
6283 126
6284 126
6285 126
6286 126
6287 126
6288 126
6289 126
6290 126
6291 126
6292 126
6293 126
6294 126
6295 126
6296 126
6297 126
6298 126
6299 126
6300 126
6301 127
6302 127
6303 127
6304 127
6305 127
6306 127
6307 127
6308 127
6309 127
6310 127
6311 127
6312 127
6313 127
6314 127
6315 127
6316 127
6317 127
6318 127
6319 127
6320 127
6321 127
6322 127
6323 127
6324 127
6325 127
6326 127
6327 127
6328 127
6329 127
6330 127
6331 127
6332 127
6333 127
6334 127
6335 127
6336 127
6337 127
6338 127
6339 127
6340 127
6341 127
6342 127
6343 127
6344 127
6345 127
6346 127
6347 127
6348 127
6349 127
6350 127
6351 128
6352 128
6353 128
6354 128
6355 128
6356 128
6357 128
6358 128
6359 128
6360 128
6361 128
6362 128
6363 128
6364 128
6365 128
6366 128
6367 128
6368 128
6369 128
6370 128
6371 128
6372 128
6373 128
6374 128
6375 128
6376 128
6377 128
6378 128
6379 128
6380 128
6381 128
6382 128
6383 128
6384 128
6385 128
6386 128
6387 128
6388 128
6389 128
6390 128
6391 128
6392 128
6393 128
6394 128
6395 128
6396 128
6397 128
6398 128
6399 128
6400 128
6401 129
6402 129
6403 129
6404 129
6405 129
6406 129
6407 129
6408 129
6409 129
6410 129
6411 129
6412 129
6413 129
6414 129
6415 129
6416 129
6417 129
6418 129
6419 129
6420 129
6421 129
6422 129
6423 129
6424 129
6425 129
6426 129
6427 129
6428 129
6429 129
6430 129
6431 129
6432 129
6433 129
6434 129
6435 129
6436 129
6437 129
6438 129
6439 129
6440 129
6441 129
6442 129
6443 129
6444 129
6445 129
6446 129
6447 129
6448 129
6449 129
6450 129
6451 130
6452 130
6453 130
6454 130
6455 130
6456 130
6457 130
6458 130
6459 130
6460 130
6461 130
6462 130
6463 130
6464 130
6465 130
6466 130
6467 130
6468 130
6469 130
6470 130
6471 130
6472 130
6473 130
6474 130
6475 130
6476 130
6477 130
6478 130
6479 130
6480 130
6481 130
6482 130
6483 130
6484 130
6485 130
6486 130
6487 130
6488 130
6489 130
6490 130
6491 130
6492 130
6493 130
6494 130
6495 130
6496 130
6497 130
6498 130
6499 130
6500 130
6501 131
6502 131
6503 131
6504 131
6505 131
6506 131
6507 131
6508 131
6509 131
6510 131
6511 131
6512 131
6513 131
6514 131
6515 131
6516 131
6517 131
6518 131
6519 131
6520 131
6521 131
6522 131
6523 131
6524 131
6525 131
6526 131
6527 131
6528 131
6529 131
6530 131
6531 131
6532 131
6533 131
6534 131
6535 131
6536 131
6537 131
6538 131
6539 131
6540 131
6541 131
6542 131
6543 131
6544 131
6545 131
6546 131
6547 131
6548 131
6549 131
6550 131
6551 132
6552 132
6553 132
6554 132
6555 132
6556 132
6557 132
6558 132
6559 132
6560 132
6561 132
6562 132
6563 132
6564 132
6565 132
6566 132
6567 132
6568 132
6569 132
6570 132
6571 132
6572 132
6573 132
6574 132
6575 132
6576 132
6577 132
6578 132
6579 132
6580 132
6581 132
6582 132
6583 132
6584 132
6585 132
6586 132
6587 132
6588 132
6589 132
6590 132
6591 132
6592 132
6593 132
6594 132
6595 132
6596 132
6597 132
6598 132
6599 132
6600 132
6601 133
6602 133
6603 133
6604 133
6605 133
6606 133
6607 133
6608 133
6609 133
6610 133
6611 133
6612 133
6613 133
6614 133
6615 133
6616 133
6617 133
6618 133
6619 133
6620 133
6621 133
6622 133
6623 133
6624 133
6625 133
6626 133
6627 133
6628 133
6629 133
6630 133
6631 133
6632 133
6633 133
6634 133
6635 133
6636 133
6637 133
6638 133
6639 133
6640 133
6641 133
6642 133
6643 133
6644 133
6645 133
6646 133
6647 133
6648 133
6649 133
6650 133
6651 134
6652 134
6653 134
6654 134
6655 134
6656 134
6657 134
6658 134
6659 134
6660 134
6661 134
6662 134
6663 134
6664 134
6665 134
6666 134
6667 134
6668 134
6669 134
6670 134
6671 134
6672 134
6673 134
6674 134
6675 134
6676 134
6677 134
6678 134
6679 134
6680 134
6681 134
6682 134
6683 134
6684 134
6685 134
6686 134
6687 134
6688 134
6689 134
6690 134
6691 134
6692 134
6693 134
6694 134
6695 134
6696 134
6697 134
6698 134
6699 134
6700 134
6701 135
6702 135
6703 135
6704 135
6705 135
6706 135
6707 135
6708 135
6709 135
6710 135
6711 135
6712 135
6713 135
6714 135
6715 135
6716 135
6717 135
6718 135
6719 135
6720 135
6721 135
6722 135
6723 135
6724 135
6725 135
6726 135
6727 135
6728 135
6729 135
6730 135
6731 135
6732 135
6733 135
6734 135
6735 135
6736 135
6737 135
6738 135
6739 135
6740 135
6741 135
6742 135
6743 135
6744 135
6745 135
6746 135
6747 135
6748 135
6749 135
6750 135
6751 136
6752 136
6753 136
6754 136
6755 136
6756 136
6757 136
6758 136
6759 136
6760 136
6761 136
6762 136
6763 136
6764 136
6765 136
6766 136
6767 136
6768 136
6769 136
6770 136
6771 136
6772 136
6773 136
6774 136
6775 136
6776 136
6777 136
6778 136
6779 136
6780 136
6781 136
6782 136
6783 136
6784 136
6785 136
6786 136
6787 136
6788 136
6789 136
6790 136
6791 136
6792 136
6793 136
6794 136
6795 136
6796 136
6797 136
6798 136
6799 136
6800 136
6801 137
6802 137
6803 137
6804 137
6805 137
6806 137
6807 137
6808 137
6809 137
6810 137
6811 137
6812 137
6813 137
6814 137
6815 137
6816 137
6817 137
6818 137
6819 137
6820 137
6821 137
6822 137
6823 137
6824 137
6825 137
6826 137
6827 137
6828 137
6829 137
6830 137
6831 137
6832 137
6833 137
6834 137
6835 137
6836 137
6837 137
6838 137
6839 137
6840 137
6841 137
6842 137
6843 137
6844 137
6845 137
6846 137
6847 137
6848 137
6849 137
6850 137
6851 138
6852 138
6853 138
6854 138
6855 138
6856 138
6857 138
6858 138
6859 138
6860 138
6861 138
6862 138
6863 138
6864 138
6865 138
6866 138
6867 138
6868 138
6869 138
6870 138
6871 138
6872 138
6873 138
6874 138
6875 138
6876 138
6877 138
6878 138
6879 138
6880 138
6881 138
6882 138
6883 138
6884 138
6885 138
6886 138
6887 138
6888 138
6889 138
6890 138
6891 138
6892 138
6893 138
6894 138
6895 138
6896 138
6897 138
6898 138
6899 138
6900 138
6901 139
6902 139
6903 139
6904 139
6905 139
6906 139
6907 139
6908 139
6909 139
6910 139
6911 139
6912 139
6913 139
6914 139
6915 139
6916 139
6917 139
6918 139
6919 139
6920 139
6921 139
6922 139
6923 139
6924 139
6925 139
6926 139
6927 139
6928 139
6929 139
6930 139
6931 139
6932 139
6933 139
6934 139
6935 139
6936 139
6937 139
6938 139
6939 139
6940 139
6941 139
6942 139
6943 139
6944 139
6945 139
6946 139
6947 139
6948 139
6949 139
6950 139
6951 140
6952 140
6953 140
6954 140
6955 140
6956 140
6957 140
6958 140
6959 140
6960 140
6961 140
6962 140
6963 140
6964 140
6965 140
6966 140
6967 140
6968 140
6969 140
6970 140
6971 140
6972 140
6973 140
6974 140
6975 140
6976 140
6977 140
6978 140
6979 140
6980 140
6981 140
6982 140
6983 140
6984 140
6985 140
6986 140
6987 140
6988 140
6989 140
6990 140
6991 140
6992 140
6993 140
6994 140
6995 140
6996 140
6997 140
6998 140
6999 140
7000 140
7001 141
7002 141
7003 141
7004 141
7005 141
7006 141
7007 141
7008 141
7009 141
7010 141
7011 141
7012 141
7013 141
7014 141
7015 141
7016 141
7017 141
7018 141
7019 141
7020 141
7021 141
7022 141
7023 141
7024 141
7025 141
7026 141
7027 141
7028 141
7029 141
7030 141
7031 141
7032 141
7033 141
7034 141
7035 141
7036 141
7037 141
7038 141
7039 141
7040 141
7041 141
7042 141
7043 141
7044 141
7045 141
7046 141
7047 141
7048 141
7049 141
7050 141
7051 142
7052 142
7053 142
7054 142
7055 142
7056 142
7057 142
7058 142
7059 142
7060 142
7061 142
7062 142
7063 142
7064 142
7065 142
7066 142
7067 142
7068 142
7069 142
7070 142
7071 142
7072 142
7073 142
7074 142
7075 142
7076 142
7077 142
7078 142
7079 142
7080 142
7081 142
7082 142
7083 142
7084 142
7085 142
7086 142
7087 142
7088 142
7089 142
7090 142
7091 142
7092 142
7093 142
7094 142
7095 142
7096 142
7097 142
7098 142
7099 142
7100 142
7101 143
7102 143
7103 143
7104 143
7105 143
7106 143
7107 143
7108 143
7109 143
7110 143
7111 143
7112 143
7113 143
7114 143
7115 143
7116 143
7117 143
7118 143
7119 143
7120 143
7121 143
7122 143
7123 143
7124 143
7125 143
7126 143
7127 143
7128 143
7129 143
7130 143
7131 143
7132 143
7133 143
7134 143
7135 143
7136 143
7137 143
7138 143
7139 143
7140 143
7141 143
7142 143
7143 143
7144 143
7145 143
7146 143
7147 143
7148 143
7149 143
7150 143
7151 144
7152 144
7153 144
7154 144
7155 144
7156 144
7157 144
7158 144
7159 144
7160 144
7161 144
7162 144
7163 144
7164 144
7165 144
7166 144
7167 144
7168 144
7169 144
7170 144
7171 144
7172 144
7173 144
7174 144
7175 144
7176 144
7177 144
7178 144
7179 144
7180 144
7181 144
7182 144
7183 144
7184 144
7185 144
7186 144
7187 144
7188 144
7189 144
7190 144
7191 144
7192 144
7193 144
7194 144
7195 144
7196 144
7197 144
7198 144
7199 144
7200 144
7201 145
7202 145
7203 145
7204 145
7205 145
7206 145
7207 145
7208 145
7209 145
7210 145
7211 145
7212 145
7213 145
7214 145
7215 145
7216 145
7217 145
7218 145
7219 145
7220 145
7221 145
7222 145
7223 145
7224 145
7225 145
7226 145
7227 145
7228 145
7229 145
7230 145
7231 145
7232 145
7233 145
7234 145
7235 145
7236 145
7237 145
7238 145
7239 145
7240 145
7241 145
7242 145
7243 145
7244 145
7245 145
7246 145
7247 145
7248 145
7249 145
7250 145
7251 146
7252 146
7253 146
7254 146
7255 146
7256 146
7257 146
7258 146
7259 146
7260 146
7261 146
7262 146
7263 146
7264 146
7265 146
7266 146
7267 146
7268 146
7269 146
7270 146
7271 146
7272 146
7273 146
7274 146
7275 146
7276 146
7277 146
7278 146
7279 146
7280 146
7281 146
7282 146
7283 146
7284 146
7285 146
7286 146
7287 146
7288 146
7289 146
7290 146
7291 146
7292 146
7293 146
7294 146
7295 146
7296 146
7297 146
7298 146
7299 146
7300 146
7301 147
7302 147
7303 147
7304 147
7305 147
7306 147
7307 147
7308 147
7309 147
7310 147
7311 147
7312 147
7313 147
7314 147
7315 147
7316 147
7317 147
7318 147
7319 147
7320 147
7321 147
7322 147
7323 147
7324 147
7325 147
7326 147
7327 147
7328 147
7329 147
7330 147
7331 147
7332 147
7333 147
7334 147
7335 147
7336 147
7337 147
7338 147
7339 147
7340 147
7341 147
7342 147
7343 147
7344 147
7345 147
7346 147
7347 147
7348 147
7349 147
7350 147
7351 148
7352 148
7353 148
7354 148
7355 148
7356 148
7357 148
7358 148
7359 148
7360 148
7361 148
7362 148
7363 148
7364 148
7365 148
7366 148
7367 148
7368 148
7369 148
7370 148
7371 148
7372 148
7373 148
7374 148
7375 148
7376 148
7377 148
7378 148
7379 148
7380 148
7381 148
7382 148
7383 148
7384 148
7385 148
7386 148
7387 148
7388 148
7389 148
7390 148
7391 148
7392 148
7393 148
7394 148
7395 148
7396 148
7397 148
7398 148
7399 148
7400 148
7401 149
7402 149
7403 149
7404 149
7405 149
7406 149
7407 149
7408 149
7409 149
7410 149
7411 149
7412 149
7413 149
7414 149
7415 149
7416 149
7417 149
7418 149
7419 149
7420 149
7421 149
7422 149
7423 149
7424 149
7425 149
7426 149
7427 149
7428 149
7429 149
7430 149
7431 149
7432 149
7433 149
7434 149
7435 149
7436 149
7437 149
7438 149
7439 149
7440 149
7441 149
7442 149
7443 149
7444 149
7445 149
7446 149
7447 149
7448 149
7449 149
7450 149
7451 150
7452 150
7453 150
7454 150
7455 150
7456 150
7457 150
7458 150
7459 150
7460 150
7461 150
7462 150
7463 150
7464 150
7465 150
7466 150
7467 150
7468 150
7469 150
7470 150
7471 150
7472 150
7473 150
7474 150
7475 150
7476 150
7477 150
7478 150
7479 150
7480 150
7481 150
7482 150
7483 150
7484 150
7485 150
7486 150
7487 150
7488 150
7489 150
7490 150
7491 150
7492 150
7493 150
7494 150
7495 150
7496 150
7497 150
7498 150
7499 150
7500 150
7501 151
7502 151
7503 151
7504 151
7505 151
7506 151
7507 151
7508 151
7509 151
7510 151
7511 151
7512 151
7513 151
7514 151
7515 151
7516 151
7517 151
7518 151
7519 151
7520 151
7521 151
7522 151
7523 151
7524 151
7525 151
7526 151
7527 151
7528 151
7529 151
7530 151
7531 151
7532 151
7533 151
7534 151
7535 151
7536 151
7537 151
7538 151
7539 151
7540 151
7541 151
7542 151
7543 151
7544 151
7545 151
7546 151
7547 151
7548 151
7549 151
7550 151
7551 152
7552 152
7553 152
7554 152
7555 152
7556 152
7557 152
7558 152
7559 152
7560 152
7561 152
7562 152
7563 152
7564 152
7565 152
7566 152
7567 152
7568 152
7569 152
7570 152
7571 152
7572 152
7573 152
7574 152
7575 152
7576 152
7577 152
7578 152
7579 152
7580 152
7581 152
7582 152
7583 152
7584 152
7585 152
7586 152
7587 152
7588 152
7589 152
7590 152
7591 152
7592 152
7593 152
7594 152
7595 152
7596 152
7597 152
7598 152
7599 152
7600 152
7601 153
7602 153
7603 153
7604 153
7605 153
7606 153
7607 153
7608 153
7609 153
7610 153
7611 153
7612 153
7613 153
7614 153
7615 153
7616 153
7617 153
7618 153
7619 153
7620 153
7621 153
7622 153
7623 153
7624 153
7625 153
7626 153
7627 153
7628 153
7629 153
7630 153
7631 153
7632 153
7633 153
7634 153
7635 153
7636 153
7637 153
7638 153
7639 153
7640 153
7641 153
7642 153
7643 153
7644 153
7645 153
7646 153
7647 153
7648 153
7649 153
7650 153
7651 154
7652 154
7653 154
7654 154
7655 154
7656 154
7657 154
7658 154
7659 154
7660 154
7661 154
7662 154
7663 154
7664 154
7665 154
7666 154
7667 154
7668 154
7669 154
7670 154
7671 154
7672 154
7673 154
7674 154
7675 154
7676 154
7677 154
7678 154
7679 154
7680 154
7681 154
7682 154
7683 154
7684 154
7685 154
7686 154
7687 154
7688 154
7689 154
7690 154
7691 154
7692 154
7693 154
7694 154
7695 154
7696 154
7697 154
7698 154
7699 154
7700 154
7701 155
7702 155
7703 155
7704 155
7705 155
7706 155
7707 155
7708 155
7709 155
7710 155
7711 155
7712 155
7713 155
7714 155
7715 155
7716 155
7717 155
7718 155
7719 155
7720 155
7721 155
7722 155
7723 155
7724 155
7725 155
7726 155
7727 155
7728 155
7729 155
7730 155
7731 155
7732 155
7733 155
7734 155
7735 155
7736 155
7737 155
7738 155
7739 155
7740 155
7741 155
7742 155
7743 155
7744 155
7745 155
7746 155
7747 155
7748 155
7749 155
7750 155
7751 156
7752 156
7753 156
7754 156
7755 156
7756 156
7757 156
7758 156
7759 156
7760 156
7761 156
7762 156
7763 156
7764 156
7765 156
7766 156
7767 156
7768 156
7769 156
7770 156
7771 156
7772 156
7773 156
7774 156
7775 156
7776 156
7777 156
7778 156
7779 156
7780 156
7781 156
7782 156
7783 156
7784 156
7785 156
7786 156
7787 156
7788 156
7789 156
7790 156
7791 156
7792 156
7793 156
7794 156
7795 156
7796 156
7797 156
7798 156
7799 156
7800 156
7801 157
7802 157
7803 157
7804 157
7805 157
7806 157
7807 157
7808 157
7809 157
7810 157
7811 157
7812 157
7813 157
7814 157
7815 157
7816 157
7817 157
7818 157
7819 157
7820 157
7821 157
7822 157
7823 157
7824 157
7825 157
7826 157
7827 157
7828 157
7829 157
7830 157
7831 157
7832 157
7833 157
7834 157
7835 157
7836 157
7837 157
7838 157
7839 157
7840 157
7841 157
7842 157
7843 157
7844 157
7845 157
7846 157
7847 157
7848 157
7849 157
7850 157
7851 158
7852 158
7853 158
7854 158
7855 158
7856 158
7857 158
7858 158
7859 158
7860 158
7861 158
7862 158
7863 158
7864 158
7865 158
7866 158
7867 158
7868 158
7869 158
7870 158
7871 158
7872 158
7873 158
7874 158
7875 158
7876 158
7877 158
7878 158
7879 158
7880 158
7881 158
7882 158
7883 158
7884 158
7885 158
7886 158
7887 158
7888 158
7889 158
7890 158
7891 158
7892 158
7893 158
7894 158
7895 158
7896 158
7897 158
7898 158
7899 158
7900 158
7901 159
7902 159
7903 159
7904 159
7905 159
7906 159
7907 159
7908 159
7909 159
7910 159
7911 159
7912 159
7913 159
7914 159
7915 159
7916 159
7917 159
7918 159
7919 159
7920 159
7921 159
7922 159
7923 159
7924 159
7925 159
7926 159
7927 159
7928 159
7929 159
7930 159
7931 159
7932 159
7933 159
7934 159
7935 159
7936 159
7937 159
7938 159
7939 159
7940 159
7941 159
7942 159
7943 159
7944 159
7945 159
7946 159
7947 159
7948 159
7949 159
7950 159
7951 160
7952 160
7953 160
7954 160
7955 160
7956 160
7957 160
7958 160
7959 160
7960 160
7961 160
7962 160
7963 160
7964 160
7965 160
7966 160
7967 160
7968 160
7969 160
7970 160
7971 160
7972 160
7973 160
7974 160
7975 160
7976 160
7977 160
7978 160
7979 160
7980 160
7981 160
7982 160
7983 160
7984 160
7985 160
7986 160
7987 160
7988 160
7989 160
7990 160
7991 160
7992 160
7993 160
7994 160
7995 160
7996 160
7997 160
7998 160
7999 160
8000 160
8001 161
8002 161
8003 161
8004 161
8005 161
8006 161
8007 161
8008 161
8009 161
8010 161
8011 161
8012 161
8013 161
8014 161
8015 161
8016 161
8017 161
8018 161
8019 161
8020 161
8021 161
8022 161
8023 161
8024 161
8025 161
8026 161
8027 161
8028 161
8029 161
8030 161
8031 161
8032 161
8033 161
8034 161
8035 161
8036 161
8037 161
8038 161
8039 161
8040 161
8041 161
8042 161
8043 161
8044 161
8045 161
8046 161
8047 161
8048 161
8049 161
8050 161
8051 162
8052 162
8053 162
8054 162
8055 162
8056 162
8057 162
8058 162
8059 162
8060 162
8061 162
8062 162
8063 162
8064 162
8065 162
8066 162
8067 162
8068 162
8069 162
8070 162
8071 162
8072 162
8073 162
8074 162
8075 162
8076 162
8077 162
8078 162
8079 162
8080 162
8081 162
8082 162
8083 162
8084 162
8085 162
8086 162
8087 162
8088 162
8089 162
8090 162
8091 162
8092 162
8093 162
8094 162
8095 162
8096 162
8097 162
8098 162
8099 162
8100 162
8101 163
8102 163
8103 163
8104 163
8105 163
8106 163
8107 163
8108 163
8109 163
8110 163
8111 163
8112 163
8113 163
8114 163
8115 163
8116 163
8117 163
8118 163
8119 163
8120 163
8121 163
8122 163
8123 163
8124 163
8125 163
8126 163
8127 163
8128 163
8129 163
8130 163
8131 163
8132 163
8133 163
8134 163
8135 163
8136 163
8137 163
8138 163
8139 163
8140 163
8141 163
8142 163
8143 163
8144 163
8145 163
8146 163
8147 163
8148 163
8149 163
8150 163
8151 164
8152 164
8153 164
8154 164
8155 164
8156 164
8157 164
8158 164
8159 164
8160 164
8161 164
8162 164
8163 164
8164 164
8165 164
8166 164
8167 164
8168 164
8169 164
8170 164
8171 164
8172 164
8173 164
8174 164
8175 164
8176 164
8177 164
8178 164
8179 164
8180 164
8181 164
8182 164
8183 164
8184 164
8185 164
8186 164
8187 164
8188 164
8189 164
8190 164
8191 164
8192 164
8193 164
8194 164
8195 164
8196 164
8197 164
8198 164
8199 164
8200 164
8201 165
8202 165
8203 165
8204 165
8205 165
8206 165
8207 165
8208 165
8209 165
8210 165
8211 165
8212 165
8213 165
8214 165
8215 165
8216 165
8217 165
8218 165
8219 165
8220 165
8221 165
8222 165
8223 165
8224 165
8225 165
8226 165
8227 165
8228 165
8229 165
8230 165
8231 165
8232 165
8233 165
8234 165
8235 165
8236 165
8237 165
8238 165
8239 165
8240 165
8241 165
8242 165
8243 165
8244 165
8245 165
8246 165
8247 165
8248 165
8249 165
8250 165
8251 166
8252 166
8253 166
8254 166
8255 166
8256 166
8257 166
8258 166
8259 166
8260 166
8261 166
8262 166
8263 166
8264 166
8265 166
8266 166
8267 166
8268 166
8269 166
8270 166
8271 166
8272 166
8273 166
8274 166
8275 166
8276 166
8277 166
8278 166
8279 166
8280 166
8281 166
8282 166
8283 166
8284 166
8285 166
8286 166
8287 166
8288 166
8289 166
8290 166
8291 166
8292 166
8293 166
8294 166
8295 166
8296 166
8297 166
8298 166
8299 166
8300 166
8301 167
8302 167
8303 167
8304 167
8305 167
8306 167
8307 167
8308 167
8309 167
8310 167
8311 167
8312 167
8313 167
8314 167
8315 167
8316 167
8317 167
8318 167
8319 167
8320 167
8321 167
8322 167
8323 167
8324 167
8325 167
8326 167
8327 167
8328 167
8329 167
8330 167
8331 167
8332 167
8333 167
8334 167
8335 167
8336 167
8337 167
8338 167
8339 167
8340 167
8341 167
8342 167
8343 167
8344 167
8345 167
8346 167
8347 167
8348 167
8349 167
8350 167
8351 168
8352 168
8353 168
8354 168
8355 168
8356 168
8357 168
8358 168
8359 168
8360 168
8361 168
8362 168
8363 168
8364 168
8365 168
8366 168
8367 168
8368 168
8369 168
8370 168
8371 168
8372 168
8373 168
8374 168
8375 168
8376 168
8377 168
8378 168
8379 168
8380 168
8381 168
8382 168
8383 168
8384 168
8385 168
8386 168
8387 168
8388 168
8389 168
8390 168
8391 168
8392 168
8393 168
8394 168
8395 168
8396 168
8397 168
8398 168
8399 168
8400 168
8401 169
8402 169
8403 169
8404 169
8405 169
8406 169
8407 169
8408 169
8409 169
8410 169
8411 169
8412 169
8413 169
8414 169
8415 169
8416 169
8417 169
8418 169
8419 169
8420 169
8421 169
8422 169
8423 169
8424 169
8425 169
8426 169
8427 169
8428 169
8429 169
8430 169
8431 169
8432 169
8433 169
8434 169
8435 169
8436 169
8437 169
8438 169
8439 169
8440 169
8441 169
8442 169
8443 169
8444 169
8445 169
8446 169
8447 169
8448 169
8449 169
8450 169
8451 170
8452 170
8453 170
8454 170
8455 170
8456 170
8457 170
8458 170
8459 170
8460 170
8461 170
8462 170
8463 170
8464 170
8465 170
8466 170
8467 170
8468 170
8469 170
8470 170
8471 170
8472 170
8473 170
8474 170
8475 170
8476 170
8477 170
8478 170
8479 170
8480 170
8481 170
8482 170
8483 170
8484 170
8485 170
8486 170
8487 170
8488 170
8489 170
8490 170
8491 170
8492 170
8493 170
8494 170
8495 170
8496 170
8497 170
8498 170
8499 170
8500 170
8501 171
8502 171
8503 171
8504 171
8505 171
8506 171
8507 171
8508 171
8509 171
8510 171
8511 171
8512 171
8513 171
8514 171
8515 171
8516 171
8517 171
8518 171
8519 171
8520 171
8521 171
8522 171
8523 171
8524 171
8525 171
8526 171
8527 171
8528 171
8529 171
8530 171
8531 171
8532 171
8533 171
8534 171
8535 171
8536 171
8537 171
8538 171
8539 171
8540 171
8541 171
8542 171
8543 171
8544 171
8545 171
8546 171
8547 171
8548 171
8549 171
8550 171
8551 172
8552 172
8553 172
8554 172
8555 172
8556 172
8557 172
8558 172
8559 172
8560 172
8561 172
8562 172
8563 172
8564 172
8565 172
8566 172
8567 172
8568 172
8569 172
8570 172
8571 172
8572 172
8573 172
8574 172
8575 172
8576 172
8577 172
8578 172
8579 172
8580 172
8581 172
8582 172
8583 172
8584 172
8585 172
8586 172
8587 172
8588 172
8589 172
8590 172
8591 172
8592 172
8593 172
8594 172
8595 172
8596 172
8597 172
8598 172
8599 172
8600 172
8601 173
8602 173
8603 173
8604 173
8605 173
8606 173
8607 173
8608 173
8609 173
8610 173
8611 173
8612 173
8613 173
8614 173
8615 173
8616 173
8617 173
8618 173
8619 173
8620 173
8621 173
8622 173
8623 173
8624 173
8625 173
8626 173
8627 173
8628 173
8629 173
8630 173
8631 173
8632 173
8633 173
8634 173
8635 173
8636 173
8637 173
8638 173
8639 173
8640 173
8641 173
8642 173
8643 173
8644 173
8645 173
8646 173
8647 173
8648 173
8649 173
8650 173
8651 174
8652 174
8653 174
8654 174
8655 174
8656 174
8657 174
8658 174
8659 174
8660 174
8661 174
8662 174
8663 174
8664 174
8665 174
8666 174
8667 174
8668 174
8669 174
8670 174
8671 174
8672 174
8673 174
8674 174
8675 174
8676 174
8677 174
8678 174
8679 174
8680 174
8681 174
8682 174
8683 174
8684 174
8685 174
8686 174
8687 174
8688 174
8689 174
8690 174
8691 174
8692 174
8693 174
8694 174
8695 174
8696 174
8697 174
8698 174
8699 174
8700 174
8701 175
8702 175
8703 175
8704 175
8705 175
8706 175
8707 175
8708 175
8709 175
8710 175
8711 175
8712 175
8713 175
8714 175
8715 175
8716 175
8717 175
8718 175
8719 175
8720 175
8721 175
8722 175
8723 175
8724 175
8725 175
8726 175
8727 175
8728 175
8729 175
8730 175
8731 175
8732 175
8733 175
8734 175
8735 175
8736 175
8737 175
8738 175
8739 175
8740 175
8741 175
8742 175
8743 175
8744 175
8745 175
8746 175
8747 175
8748 175
8749 175
8750 175
8751 176
8752 176
8753 176
8754 176
8755 176
8756 176
8757 176
8758 176
8759 176
8760 176
8761 176
8762 176
8763 176
8764 176
8765 176
8766 176
8767 176
8768 176
8769 176
8770 176
8771 176
8772 176
8773 176
8774 176
8775 176
8776 176
8777 176
8778 176
8779 176
8780 176
8781 176
8782 176
8783 176
8784 176
8785 176
8786 176
8787 176
8788 176
8789 176
8790 176
8791 176
8792 176
8793 176
8794 176
8795 176
8796 176
8797 176
8798 176
8799 176
8800 176
8801 177
8802 177
8803 177
8804 177
8805 177
8806 177
8807 177
8808 177
8809 177
8810 177
8811 177
8812 177
8813 177
8814 177
8815 177
8816 177
8817 177
8818 177
8819 177
8820 177
8821 177
8822 177
8823 177
8824 177
8825 177
8826 177
8827 177
8828 177
8829 177
8830 177
8831 177
8832 177
8833 177
8834 177
8835 177
8836 177
8837 177
8838 177
8839 177
8840 177
8841 177
8842 177
8843 177
8844 177
8845 177
8846 177
8847 177
8848 177
8849 177
8850 177
8851 178
8852 178
8853 178
8854 178
8855 178
8856 178
8857 178
8858 178
8859 178
8860 178
8861 178
8862 178
8863 178
8864 178
8865 178
8866 178
8867 178
8868 178
8869 178
8870 178
8871 178
8872 178
8873 178
8874 178
8875 178
8876 178
8877 178
8878 178
8879 178
8880 178
8881 178
8882 178
8883 178
8884 178
8885 178
8886 178
8887 178
8888 178
8889 178
8890 178
8891 178
8892 178
8893 178
8894 178
8895 178
8896 178
8897 178
8898 178
8899 178
8900 178
8901 179
8902 179
8903 179
8904 179
8905 179
8906 179
8907 179
8908 179
8909 179
8910 179
8911 179
8912 179
8913 179
8914 179
8915 179
8916 179
8917 179
8918 179
8919 179
8920 179
8921 179
8922 179
8923 179
8924 179
8925 179
8926 179
8927 179
8928 179
8929 179
8930 179
8931 179
8932 179
8933 179
8934 179
8935 179
8936 179
8937 179
8938 179
8939 179
8940 179
8941 179
8942 179
8943 179
8944 179
8945 179
8946 179
8947 179
8948 179
8949 179
8950 179
8951 180
8952 180
8953 180
8954 180
8955 180
8956 180
8957 180
8958 180
8959 180
8960 180
8961 180
8962 180
8963 180
8964 180
8965 180
8966 180
8967 180
8968 180
8969 180
8970 180
8971 180
8972 180
8973 180
8974 180
8975 180
8976 180
8977 180
8978 180
8979 180
8980 180
8981 180
8982 180
8983 180
8984 180
8985 180
8986 180
8987 180
8988 180
8989 180
8990 180
8991 180
8992 180
8993 180
8994 180
8995 180
8996 180
8997 180
8998 180
8999 180
9000 180
9001 181
9002 181
9003 181
9004 181
9005 181
9006 181
9007 181
9008 181
9009 181
9010 181
9011 181
9012 181
9013 181
9014 181
9015 181
9016 181
9017 181
9018 181
9019 181
9020 181
9021 181
9022 181
9023 181
9024 181
9025 181
9026 181
9027 181
9028 181
9029 181
9030 181
9031 181
9032 181
9033 181
9034 181
9035 181
9036 181
9037 181
9038 181
9039 181
9040 181
9041 181
9042 181
9043 181
9044 181
9045 181
9046 181
9047 181
9048 181
9049 181
9050 181
9051 182
9052 182
9053 182
9054 182
9055 182
9056 182
9057 182
9058 182
9059 182
9060 182
9061 182
9062 182
9063 182
9064 182
9065 182
9066 182
9067 182
9068 182
9069 182
9070 182
9071 182
9072 182
9073 182
9074 182
9075 182
9076 182
9077 182
9078 182
9079 182
9080 182
9081 182
9082 182
9083 182
9084 182
9085 182
9086 182
9087 182
9088 182
9089 182
9090 182
9091 182
9092 182
9093 182
9094 182
9095 182
9096 182
9097 182
9098 182
9099 182
9100 182
9101 183
9102 183
9103 183
9104 183
9105 183
9106 183
9107 183
9108 183
9109 183
9110 183
9111 183
9112 183
9113 183
9114 183
9115 183
9116 183
9117 183
9118 183
9119 183
9120 183
9121 183
9122 183
9123 183
9124 183
9125 183
9126 183
9127 183
9128 183
9129 183
9130 183
9131 183
9132 183
9133 183
9134 183
9135 183
9136 183
9137 183
9138 183
9139 183
9140 183
9141 183
9142 183
9143 183
9144 183
9145 183
9146 183
9147 183
9148 183
9149 183
9150 183
9151 184
9152 184
9153 184
9154 184
9155 184
9156 184
9157 184
9158 184
9159 184
9160 184
9161 184
9162 184
9163 184
9164 184
9165 184
9166 184
9167 184
9168 184
9169 184
9170 184
9171 184
9172 184
9173 184
9174 184
9175 184
9176 184
9177 184
9178 184
9179 184
9180 184
9181 184
9182 184
9183 184
9184 184
9185 184
9186 184
9187 184
9188 184
9189 184
9190 184
9191 184
9192 184
9193 184
9194 184
9195 184
9196 184
9197 184
9198 184
9199 184
9200 184
9201 185
9202 185
9203 185
9204 185
9205 185
9206 185
9207 185
9208 185
9209 185
9210 185
9211 185
9212 185
9213 185
9214 185
9215 185
9216 185
9217 185
9218 185
9219 185
9220 185
9221 185
9222 185
9223 185
9224 185
9225 185
9226 185
9227 185
9228 185
9229 185
9230 185
9231 185
9232 185
9233 185
9234 185
9235 185
9236 185
9237 185
9238 185
9239 185
9240 185
9241 185
9242 185
9243 185
9244 185
9245 185
9246 185
9247 185
9248 185
9249 185
9250 185
9251 186
9252 186
9253 186
9254 186
9255 186
9256 186
9257 186
9258 186
9259 186
9260 186
9261 186
9262 186
9263 186
9264 186
9265 186
9266 186
9267 186
9268 186
9269 186
9270 186
9271 186
9272 186
9273 186
9274 186
9275 186
9276 186
9277 186
9278 186
9279 186
9280 186
9281 186
9282 186
9283 186
9284 186
9285 186
9286 186
9287 186
9288 186
9289 186
9290 186
9291 186
9292 186
9293 186
9294 186
9295 186
9296 186
9297 186
9298 186
9299 186
9300 186
9301 187
9302 187
9303 187
9304 187
9305 187
9306 187
9307 187
9308 187
9309 187
9310 187
9311 187
9312 187
9313 187
9314 187
9315 187
9316 187
9317 187
9318 187
9319 187
9320 187
9321 187
9322 187
9323 187
9324 187
9325 187
9326 187
9327 187
9328 187
9329 187
9330 187
9331 187
9332 187
9333 187
9334 187
9335 187
9336 187
9337 187
9338 187
9339 187
9340 187
9341 187
9342 187
9343 187
9344 187
9345 187
9346 187
9347 187
9348 187
9349 187
9350 187
9351 188
9352 188
9353 188
9354 188
9355 188
9356 188
9357 188
9358 188
9359 188
9360 188
9361 188
9362 188
9363 188
9364 188
9365 188
9366 188
9367 188
9368 188
9369 188
9370 188
9371 188
9372 188
9373 188
9374 188
9375 188
9376 188
9377 188
9378 188
9379 188
9380 188
9381 188
9382 188
9383 188
9384 188
9385 188
9386 188
9387 188
9388 188
9389 188
9390 188
9391 188
9392 188
9393 188
9394 188
9395 188
9396 188
9397 188
9398 188
9399 188
9400 188
9401 189
9402 189
9403 189
9404 189
9405 189
9406 189
9407 189
9408 189
9409 189
9410 189
9411 189
9412 189
9413 189
9414 189
9415 189
9416 189
9417 189
9418 189
9419 189
9420 189
9421 189
9422 189
9423 189
9424 189
9425 189
9426 189
9427 189
9428 189
9429 189
9430 189
9431 189
9432 189
9433 189
9434 189
9435 189
9436 189
9437 189
9438 189
9439 189
9440 189
9441 189
9442 189
9443 189
9444 189
9445 189
9446 189
9447 189
9448 189
9449 189
9450 189
9451 190
9452 190
9453 190
9454 190
9455 190
9456 190
9457 190
9458 190
9459 190
9460 190
9461 190
9462 190
9463 190
9464 190
9465 190
9466 190
9467 190
9468 190
9469 190
9470 190
9471 190
9472 190
9473 190
9474 190
9475 190
9476 190
9477 190
9478 190
9479 190
9480 190
9481 190
9482 190
9483 190
9484 190
9485 190
9486 190
9487 190
9488 190
9489 190
9490 190
9491 190
9492 190
9493 190
9494 190
9495 190
9496 190
9497 190
9498 190
9499 190
9500 190
9501 191
9502 191
9503 191
9504 191
9505 191
9506 191
9507 191
9508 191
9509 191
9510 191
9511 191
9512 191
9513 191
9514 191
9515 191
9516 191
9517 191
9518 191
9519 191
9520 191
9521 191
9522 191
9523 191
9524 191
9525 191
9526 191
9527 191
9528 191
9529 191
9530 191
9531 191
9532 191
9533 191
9534 191
9535 191
9536 191
9537 191
9538 191
9539 191
9540 191
9541 191
9542 191
9543 191
9544 191
9545 191
9546 191
9547 191
9548 191
9549 191
9550 191
9551 192
9552 192
9553 192
9554 192
9555 192
9556 192
9557 192
9558 192
9559 192
9560 192
9561 192
9562 192
9563 192
9564 192
9565 192
9566 192
9567 192
9568 192
9569 192
9570 192
9571 192
9572 192
9573 192
9574 192
9575 192
9576 192
9577 192
9578 192
9579 192
9580 192
9581 192
9582 192
9583 192
9584 192
9585 192
9586 192
9587 192
9588 192
9589 192
9590 192
9591 192
9592 192
9593 192
9594 192
9595 192
9596 192
9597 192
9598 192
9599 192
9600 192
9601 193
9602 193
9603 193
9604 193
9605 193
9606 193
9607 193
9608 193
9609 193
9610 193
9611 193
9612 193
9613 193
9614 193
9615 193
9616 193
9617 193
9618 193
9619 193
9620 193
9621 193
9622 193
9623 193
9624 193
9625 193
9626 193
9627 193
9628 193
9629 193
9630 193
9631 193
9632 193
9633 193
9634 193
9635 193
9636 193
9637 193
9638 193
9639 193
9640 193
9641 193
9642 193
9643 193
9644 193
9645 193
9646 193
9647 193
9648 193
9649 193
9650 193
9651 194
9652 194
9653 194
9654 194
9655 194
9656 194
9657 194
9658 194
9659 194
9660 194
9661 194
9662 194
9663 194
9664 194
9665 194
9666 194
9667 194
9668 194
9669 194
9670 194
9671 194
9672 194
9673 194
9674 194
9675 194
9676 194
9677 194
9678 194
9679 194
9680 194
9681 194
9682 194
9683 194
9684 194
9685 194
9686 194
9687 194
9688 194
9689 194
9690 194
9691 194
9692 194
9693 194
9694 194
9695 194
9696 194
9697 194
9698 194
9699 194
9700 194
9701 195
9702 195
9703 195
9704 195
9705 195
9706 195
9707 195
9708 195
9709 195
9710 195
9711 195
9712 195
9713 195
9714 195
9715 195
9716 195
9717 195
9718 195
9719 195
9720 195
9721 195
9722 195
9723 195
9724 195
9725 195
9726 195
9727 195
9728 195
9729 195
9730 195
9731 195
9732 195
9733 195
9734 195
9735 195
9736 195
9737 195
9738 195
9739 195
9740 195
9741 195
9742 195
9743 195
9744 195
9745 195
9746 195
9747 195
9748 195
9749 195
9750 195
9751 196
9752 196
9753 196
9754 196
9755 196
9756 196
9757 196
9758 196
9759 196
9760 196
9761 196
9762 196
9763 196
9764 196
9765 196
9766 196
9767 196
9768 196
9769 196
9770 196
9771 196
9772 196
9773 196
9774 196
9775 196
9776 196
9777 196
9778 196
9779 196
9780 196
9781 196
9782 196
9783 196
9784 196
9785 196
9786 196
9787 196
9788 196
9789 196
9790 196
9791 196
9792 196
9793 196
9794 196
9795 196
9796 196
9797 196
9798 196
9799 196
9800 196
9801 197
9802 197
9803 197
9804 197
9805 197
9806 197
9807 197
9808 197
9809 197
9810 197
9811 197
9812 197
9813 197
9814 197
9815 197
9816 197
9817 197
9818 197
9819 197
9820 197
9821 197
9822 197
9823 197
9824 197
9825 197
9826 197
9827 197
9828 197
9829 197
9830 197
9831 197
9832 197
9833 197
9834 197
9835 197
9836 197
9837 197
9838 197
9839 197
9840 197
9841 197
9842 197
9843 197
9844 197
9845 197
9846 197
9847 197
9848 197
9849 197
9850 197
9851 198
9852 198
9853 198
9854 198
9855 198
9856 198
9857 198
9858 198
9859 198
9860 198
9861 198
9862 198
9863 198
9864 198
9865 198
9866 198
9867 198
9868 198
9869 198
9870 198
9871 198
9872 198
9873 198
9874 198
9875 198
9876 198
9877 198
9878 198
9879 198
9880 198
9881 198
9882 198
9883 198
9884 198
9885 198
9886 198
9887 198
9888 198
9889 198
9890 198
9891 198
9892 198
9893 198
9894 198
9895 198
9896 198
9897 198
9898 198
9899 198
9900 198
9901 199
9902 199
9903 199
9904 199
9905 199
9906 199
9907 199
9908 199
9909 199
9910 199
9911 199
9912 199
9913 199
9914 199
9915 199
9916 199
9917 199
9918 199
9919 199
9920 199
9921 199
9922 199
9923 199
9924 199
9925 199
9926 199
9927 199
9928 199
9929 199
9930 199
9931 199
9932 199
9933 199
9934 199
9935 199
9936 199
9937 199
9938 199
9939 199
9940 199
9941 199
9942 199
9943 199
9944 199
9945 199
9946 199
9947 199
9948 199
9949 199
9950 199
9951 200
9952 200
9953 200
9954 200
9955 200
9956 200
9957 200
9958 200
9959 200
9960 200
9961 200
9962 200
9963 200
9964 200
9965 200
9966 200
9967 200
9968 200
9969 200
9970 200
9971 200
9972 200
9973 200
9974 200
9975 200
9976 200
9977 200
9978 200
9979 200
9980 200
9981 200
9982 200
9983 200
9984 200
9985 200
9986 200
9987 200
9988 200
9989 200
9990 200
9991 200
9992 200
9993 200
9994 200
9995 200
9996 200
9997 200
9998 200
9999 200
10000 200
10001 201
10002 201
10003 201
10004 201
10005 201
10006 201
10007 201
10008 201
10009 201
10010 201
10011 201
10012 201
10013 201
10014 201
10015 201
10016 201
10017 201
10018 201
10019 201
10020 201
10021 201
10022 201
10023 201
10024 201
10025 201
10026 201
10027 201
10028 201
10029 201
10030 201
10031 201
10032 201
10033 201
10034 201
10035 201
10036 201
10037 201
10038 201
10039 201
10040 201
10041 201
10042 201
10043 201
10044 201
10045 201
10046 201
10047 201
10048 201
10049 201
10050 201
10051 202
10052 202
10053 202
10054 202
10055 202
10056 202
10057 202
10058 202
10059 202
10060 202
10061 202
10062 202
10063 202
10064 202
10065 202
10066 202
10067 202
10068 202
10069 202
10070 202
10071 202
10072 202
10073 202
10074 202
10075 202
10076 202
10077 202
10078 202
10079 202
10080 202
10081 202
10082 202
10083 202
10084 202
10085 202
10086 202
10087 202
10088 202
10089 202
10090 202
10091 202
10092 202
10093 202
10094 202
10095 202
10096 202
10097 202
10098 202
10099 202
10100 202
10101 203
10102 203
10103 203
10104 203
10105 203
10106 203
10107 203
10108 203
10109 203
10110 203
10111 203
10112 203
10113 203
10114 203
10115 203
10116 203
10117 203
10118 203
10119 203
10120 203
10121 203
10122 203
10123 203
10124 203
10125 203
10126 203
10127 203
10128 203
10129 203
10130 203
10131 203
10132 203
10133 203
10134 203
10135 203
10136 203
10137 203
10138 203
10139 203
10140 203
10141 203
10142 203
10143 203
10144 203
10145 203
10146 203
10147 203
10148 203
10149 203
10150 203
10151 204
10152 204
10153 204
10154 204
10155 204
10156 204
10157 204
10158 204
10159 204
10160 204
10161 204
10162 204
10163 204
10164 204
10165 204
10166 204
10167 204
10168 204
10169 204
10170 204
10171 204
10172 204
10173 204
10174 204
10175 204
10176 204
10177 204
10178 204
10179 204
10180 204
10181 204
10182 204
10183 204
10184 204
10185 204
10186 204
10187 204
10188 204
10189 204
10190 204
10191 204
10192 204
10193 204
10194 204
10195 204
10196 204
10197 204
10198 204
10199 204
10200 204
10201 205
10202 205
10203 205
10204 205
10205 205
10206 205
10207 205
10208 205
10209 205
10210 205
10211 205
10212 205
10213 205
10214 205
10215 205
10216 205
10217 205
10218 205
10219 205
10220 205
10221 205
10222 205
10223 205
10224 205
10225 205
10226 205
10227 205
10228 205
10229 205
10230 205
10231 205
10232 205
10233 205
10234 205
10235 205
10236 205
10237 205
10238 205
10239 205
10240 205
10241 205
10242 205
10243 205
10244 205
10245 205
10246 205
10247 205
10248 205
10249 205
10250 205
10251 206
10252 206
10253 206
10254 206
10255 206
10256 206
10257 206
10258 206
10259 206
10260 206
10261 206
10262 206
10263 206
10264 206
10265 206
10266 206
10267 206
10268 206
10269 206
10270 206
10271 206
10272 206
10273 206
10274 206
10275 206
10276 206
10277 206
10278 206
10279 206
10280 206
10281 206
10282 206
10283 206
10284 206
10285 206
10286 206
10287 206
10288 206
10289 206
10290 206
10291 206
10292 206
10293 206
10294 206
10295 206
10296 206
10297 206
10298 206
10299 206
10300 206
10301 207
10302 207
10303 207
10304 207
10305 207
10306 207
10307 207
10308 207
10309 207
10310 207
10311 207
10312 207
10313 207
10314 207
10315 207
10316 207
10317 207
10318 207
10319 207
10320 207
10321 207
10322 207
10323 207
10324 207
10325 207
10326 207
10327 207
10328 207
10329 207
10330 207
10331 207
10332 207
10333 207
10334 207
10335 207
10336 207
10337 207
10338 207
10339 207
10340 207
10341 207
10342 207
10343 207
10344 207
10345 207
10346 207
10347 207
10348 207
10349 207
10350 207
10351 208
10352 208
10353 208
10354 208
10355 208
10356 208
10357 208
10358 208
10359 208
10360 208
10361 208
10362 208
10363 208
10364 208
10365 208
10366 208
10367 208
10368 208
10369 208
10370 208
10371 208
10372 208
10373 208
10374 208
10375 208
10376 208
10377 208
10378 208
10379 208
10380 208
10381 208
10382 208
10383 208
10384 208
10385 208
10386 208
10387 208
10388 208
10389 208
10390 208
10391 208
10392 208
10393 208
10394 208
10395 208
10396 208
10397 208
10398 208
10399 208
10400 208
10401 209
10402 209
10403 209
10404 209
10405 209
10406 209
10407 209
10408 209
10409 209
10410 209
10411 209
10412 209
10413 209
10414 209
10415 209
10416 209
10417 209
10418 209
10419 209
10420 209
10421 209
10422 209
10423 209
10424 209
10425 209
10426 209
10427 209
10428 209
10429 209
10430 209
10431 209
10432 209
10433 209
10434 209
10435 209
10436 209
10437 209
10438 209
10439 209
10440 209
10441 209
10442 209
10443 209
10444 209
10445 209
10446 209
10447 209
10448 209
10449 209
10450 209
10451 210
10452 210
10453 210
10454 210
10455 210
10456 210
10457 210
10458 210
10459 210
10460 210
10461 210
10462 210
10463 210
10464 210
10465 210
10466 210
10467 210
10468 210
10469 210
10470 210
10471 210
10472 210
10473 210
10474 210
10475 210
10476 210
10477 210
10478 210
10479 210
10480 210
10481 210
10482 210
10483 210
10484 210
10485 210
10486 210
10487 210
10488 210
10489 210
10490 210
10491 210
10492 210
10493 210
10494 210
10495 210
10496 210
10497 210
10498 210
10499 210
10500 210
10501 211
10502 211
10503 211
10504 211
10505 211
10506 211
10507 211
10508 211
10509 211
10510 211
10511 211
10512 211
10513 211
10514 211
10515 211
10516 211
10517 211
10518 211
10519 211
10520 211
10521 211
10522 211
10523 211
10524 211
10525 211
10526 211
10527 211
10528 211
10529 211
10530 211
10531 211
10532 211
10533 211
10534 211
10535 211
10536 211
10537 211
10538 211
10539 211
10540 211
10541 211
10542 211
10543 211
10544 211
10545 211
10546 211
10547 211
10548 211
10549 211
10550 211
10551 212
10552 212
10553 212
10554 212
10555 212
10556 212
10557 212
10558 212
10559 212
10560 212
10561 212
10562 212
10563 212
10564 212
10565 212
10566 212
10567 212
10568 212
10569 212
10570 212
10571 212
10572 212
10573 212
10574 212
10575 212
10576 212
10577 212
10578 212
10579 212
10580 212
10581 212
10582 212
10583 212
10584 212
10585 212
10586 212
10587 212
10588 212
10589 212
10590 212
10591 212
10592 212
10593 212
10594 212
10595 212
10596 212
10597 212
10598 212
10599 212
10600 212
10601 213
10602 213
10603 213
10604 213
10605 213
10606 213
10607 213
10608 213
10609 213
10610 213
10611 213
10612 213
10613 213
10614 213
10615 213
10616 213
10617 213
10618 213
10619 213
10620 213
10621 213
10622 213
10623 213
10624 213
10625 213
10626 213
10627 213
10628 213
10629 213
10630 213
10631 213
10632 213
10633 213
10634 213
10635 213
10636 213
10637 213
10638 213
10639 213
10640 213
10641 213
10642 213
10643 213
10644 213
10645 213
10646 213
10647 213
10648 213
10649 213
10650 213
10651 214
10652 214
10653 214
10654 214
10655 214
10656 214
10657 214
10658 214
10659 214
10660 214
10661 214
10662 214
10663 214
10664 214
10665 214
10666 214
10667 214
10668 214
10669 214
10670 214
10671 214
10672 214
10673 214
10674 214
10675 214
10676 214
10677 214
10678 214
10679 214
10680 214
10681 214
10682 214
10683 214
10684 214
10685 214
10686 214
10687 214
10688 214
10689 214
10690 214
10691 214
10692 214
10693 214
10694 214
10695 214
10696 214
10697 214
10698 214
10699 214
10700 214
10701 215
10702 215
10703 215
10704 215
10705 215
10706 215
10707 215
10708 215
10709 215
10710 215
10711 215
10712 215
10713 215
10714 215
10715 215
10716 215
10717 215
10718 215
10719 215
10720 215
10721 215
10722 215
10723 215
10724 215
10725 215
10726 215
10727 215
10728 215
10729 215
10730 215
10731 215
10732 215
10733 215
10734 215
10735 215
10736 215
10737 215
10738 215
10739 215
10740 215
10741 215
10742 215
10743 215
10744 215
10745 215
10746 215
10747 215
10748 215
10749 215
10750 215
10751 216
10752 216
10753 216
10754 216
10755 216
10756 216
10757 216
10758 216
10759 216
10760 216
10761 216
10762 216
10763 216
10764 216
10765 216
10766 216
10767 216
10768 216
10769 216
10770 216
10771 216
10772 216
10773 216
10774 216
10775 216
10776 216
10777 216
10778 216
10779 216
10780 216
10781 216
10782 216
10783 216
10784 216
10785 216
10786 216
10787 216
10788 216
10789 216
10790 216
10791 216
10792 216
10793 216
10794 216
10795 216
10796 216
10797 216
10798 216
10799 216
10800 216
10801 217
10802 217
10803 217
10804 217
10805 217
10806 217
10807 217
10808 217
10809 217
10810 217
10811 217
10812 217
10813 217
10814 217
10815 217
10816 217
10817 217
10818 217
10819 217
10820 217
10821 217
10822 217
10823 217
10824 217
10825 217
10826 217
10827 217
10828 217
10829 217
10830 217
10831 217
10832 217
10833 217
10834 217
10835 217
10836 217
10837 217
10838 217
10839 217
10840 217
10841 217
10842 217
10843 217
10844 217
10845 217
10846 217
10847 217
10848 217
10849 217
10850 217
10851 218
10852 218
10853 218
10854 218
10855 218
10856 218
10857 218
10858 218
10859 218
10860 218
10861 218
10862 218
10863 218
10864 218
10865 218
10866 218
10867 218
10868 218
10869 218
10870 218
10871 218
10872 218
10873 218
10874 218
10875 218
10876 218
10877 218
10878 218
10879 218
10880 218
10881 218
10882 218
10883 218
10884 218
10885 218
10886 218
10887 218
10888 218
10889 218
10890 218
10891 218
10892 218
10893 218
10894 218
10895 218
10896 218
10897 218
10898 218
10899 218
10900 218
10901 219
10902 219
10903 219
10904 219
10905 219
10906 219
10907 219
10908 219
10909 219
10910 219
10911 219
10912 219
10913 219
10914 219
10915 219
10916 219
10917 219
10918 219
10919 219
10920 219
10921 219
10922 219
10923 219
10924 219
10925 219
10926 219
10927 219
10928 219
10929 219
10930 219
10931 219
10932 219
10933 219
10934 219
10935 219
10936 219
10937 219
10938 219
10939 219
10940 219
10941 219
10942 219
10943 219
10944 219
10945 219
10946 219
10947 219
10948 219
10949 219
10950 219
10951 220
10952 220
10953 220
10954 220
10955 220
10956 220
10957 220
10958 220
10959 220
10960 220
10961 220
10962 220
10963 220
10964 220
10965 220
10966 220
10967 220
10968 220
10969 220
10970 220
10971 220
10972 220
10973 220
10974 220
10975 220
10976 220
10977 220
10978 220
10979 220
10980 220
10981 220
10982 220
10983 220
10984 220
10985 220
10986 220
10987 220
10988 220
10989 220
10990 220
10991 220
10992 220
10993 220
10994 220
10995 220
10996 220
10997 220
10998 220
10999 220
11000 220
11001 221
11002 221
11003 221
11004 221
11005 221
11006 221
11007 221
11008 221
11009 221
11010 221
11011 221
11012 221
11013 221
11014 221
11015 221
11016 221
11017 221
11018 221
11019 221
11020 221
11021 221
11022 221
11023 221
11024 221
11025 221
11026 221
11027 221
11028 221
11029 221
11030 221
11031 221
11032 221
11033 221
11034 221
11035 221
11036 221
11037 221
11038 221
11039 221
11040 221
11041 221
11042 221
11043 221
11044 221
11045 221
11046 221
11047 221
11048 221
11049 221
11050 221
11051 222
11052 222
11053 222
11054 222
11055 222
11056 222
11057 222
11058 222
11059 222
11060 222
11061 222
11062 222
11063 222
11064 222
11065 222
11066 222
11067 222
11068 222
11069 222
11070 222
11071 222
11072 222
11073 222
11074 222
11075 222
11076 222
11077 222
11078 222
11079 222
11080 222
11081 222
11082 222
11083 222
11084 222
11085 222
11086 222
11087 222
11088 222
11089 222
11090 222
11091 222
11092 222
11093 222
11094 222
11095 222
11096 222
11097 222
11098 222
11099 222
11100 222
11101 223
11102 223
11103 223
11104 223
11105 223
11106 223
11107 223
11108 223
11109 223
11110 223
11111 223
11112 223
11113 223
11114 223
11115 223
11116 223
11117 223
11118 223
11119 223
11120 223
11121 223
11122 223
11123 223
11124 223
11125 223
11126 223
11127 223
11128 223
11129 223
11130 223
11131 223
11132 223
11133 223
11134 223
11135 223
11136 223
11137 223
11138 223
11139 223
11140 223
11141 223
11142 223
11143 223
11144 223
11145 223
11146 223
11147 223
11148 223
11149 223
11150 223
11151 224
11152 224
11153 224
11154 224
11155 224
11156 224
11157 224
11158 224
11159 224
11160 224
11161 224
11162 224
11163 224
11164 224
11165 224
11166 224
11167 224
11168 224
11169 224
11170 224
11171 224
11172 224
11173 224
11174 224
11175 224
11176 224
11177 224
11178 224
11179 224
11180 224
11181 224
11182 224
11183 224
11184 224
11185 224
11186 224
11187 224
11188 224
11189 224
11190 224
11191 224
11192 224
11193 224
11194 224
11195 224
11196 224
11197 224
11198 224
11199 224
11200 224
11201 225
11202 225
11203 225
11204 225
11205 225
11206 225
11207 225
11208 225
11209 225
11210 225
11211 225
11212 225
11213 225
11214 225
11215 225
11216 225
11217 225
11218 225
11219 225
11220 225
11221 225
11222 225
11223 225
11224 225
11225 225
11226 225
11227 225
11228 225
11229 225
11230 225
11231 225
11232 225
11233 225
11234 225
11235 225
11236 225
11237 225
11238 225
11239 225
11240 225
11241 225
11242 225
11243 225
11244 225
11245 225
11246 225
11247 225
11248 225
11249 225
11250 225
11251 226
11252 226
11253 226
11254 226
11255 226
11256 226
11257 226
11258 226
11259 226
11260 226
11261 226
11262 226
11263 226
11264 226
11265 226
11266 226
11267 226
11268 226
11269 226
11270 226
11271 226
11272 226
11273 226
11274 226
11275 226
11276 226
11277 226
11278 226
11279 226
11280 226
11281 226
11282 226
11283 226
11284 226
11285 226
11286 226
11287 226
11288 226
11289 226
11290 226
11291 226
11292 226
11293 226
11294 226
11295 226
11296 226
11297 226
11298 226
11299 226
11300 226
11301 227
11302 227
11303 227
11304 227
11305 227
11306 227
11307 227
11308 227
11309 227
11310 227
11311 227
11312 227
11313 227
11314 227
11315 227
11316 227
11317 227
11318 227
11319 227
11320 227
11321 227
11322 227
11323 227
11324 227
11325 227
11326 227
11327 227
11328 227
11329 227
11330 227
11331 227
11332 227
11333 227
11334 227
11335 227
11336 227
11337 227
11338 227
11339 227
11340 227
11341 227
11342 227
11343 227
11344 227
11345 227
11346 227
11347 227
11348 227
11349 227
11350 227
11351 228
11352 228
11353 228
11354 228
11355 228
11356 228
11357 228
11358 228
11359 228
11360 228
11361 228
11362 228
11363 228
11364 228
11365 228
11366 228
11367 228
11368 228
11369 228
11370 228
11371 228
11372 228
11373 228
11374 228
11375 228
11376 228
11377 228
11378 228
11379 228
11380 228
11381 228
11382 228
11383 228
11384 228
11385 228
11386 228
11387 228
11388 228
11389 228
11390 228
11391 228
11392 228
11393 228
11394 228
11395 228
11396 228
11397 228
11398 228
11399 228
11400 228
11401 229
11402 229
11403 229
11404 229
11405 229
11406 229
11407 229
11408 229
11409 229
11410 229
11411 229
11412 229
11413 229
11414 229
11415 229
11416 229
11417 229
11418 229
11419 229
11420 229
11421 229
11422 229
11423 229
11424 229
11425 229
11426 229
11427 229
11428 229
11429 229
11430 229
11431 229
11432 229
11433 229
11434 229
11435 229
11436 229
11437 229
11438 229
11439 229
11440 229
11441 229
11442 229
11443 229
11444 229
11445 229
11446 229
11447 229
11448 229
11449 229
11450 229
11451 230
11452 230
11453 230
11454 230
11455 230
11456 230
11457 230
11458 230
11459 230
11460 230
11461 230
11462 230
11463 230
11464 230
11465 230
11466 230
11467 230
11468 230
11469 230
11470 230
11471 230
11472 230
11473 230
11474 230
11475 230
11476 230
11477 230
11478 230
11479 230
11480 230
11481 230
11482 230
11483 230
11484 230
11485 230
11486 230
11487 230
11488 230
11489 230
11490 230
11491 230
11492 230
11493 230
11494 230
11495 230
11496 230
11497 230
11498 230
11499 230
11500 230
11501 231
11502 231
11503 231
11504 231
11505 231
11506 231
11507 231
11508 231
11509 231
11510 231
11511 231
11512 231
11513 231
11514 231
11515 231
11516 231
11517 231
11518 231
11519 231
11520 231
11521 231
11522 231
11523 231
11524 231
11525 231
11526 231
11527 231
11528 231
11529 231
11530 231
11531 231
11532 231
11533 231
11534 231
11535 231
11536 231
11537 231
11538 231
11539 231
11540 231
11541 231
11542 231
11543 231
11544 231
11545 231
11546 231
11547 231
11548 231
11549 231
11550 231
11551 232
11552 232
11553 232
11554 232
11555 232
11556 232
11557 232
11558 232
11559 232
11560 232
11561 232
11562 232
11563 232
11564 232
11565 232
11566 232
11567 232
11568 232
11569 232
11570 232
11571 232
11572 232
11573 232
11574 232
11575 232
11576 232
11577 232
11578 232
11579 232
11580 232
11581 232
11582 232
11583 232
11584 232
11585 232
11586 232
11587 232
11588 232
11589 232
11590 232
11591 232
11592 232
11593 232
11594 232
11595 232
11596 232
11597 232
11598 232
11599 232
11600 232
11601 233
11602 233
11603 233
11604 233
11605 233
11606 233
11607 233
11608 233
11609 233
11610 233
11611 233
11612 233
11613 233
11614 233
11615 233
11616 233
11617 233
11618 233
11619 233
11620 233
11621 233
11622 233
11623 233
11624 233
11625 233
11626 233
11627 233
11628 233
11629 233
11630 233
11631 233
11632 233
11633 233
11634 233
11635 233
11636 233
11637 233
11638 233
11639 233
11640 233
11641 233
11642 233
11643 233
11644 233
11645 233
11646 233
11647 233
11648 233
11649 233
11650 233
11651 234
11652 234
11653 234
11654 234
11655 234
11656 234
11657 234
11658 234
11659 234
11660 234
11661 234
11662 234
11663 234
11664 234
11665 234
11666 234
11667 234
11668 234
11669 234
11670 234
11671 234
11672 234
11673 234
11674 234
11675 234
11676 234
11677 234
11678 234
11679 234
11680 234
11681 234
11682 234
11683 234
11684 234
11685 234
11686 234
11687 234
11688 234
11689 234
11690 234
11691 234
11692 234
11693 234
11694 234
11695 234
11696 234
11697 234
11698 234
11699 234
11700 234
11701 235
11702 235
11703 235
11704 235
11705 235
11706 235
11707 235
11708 235
11709 235
11710 235
11711 235
11712 235
11713 235
11714 235
11715 235
11716 235
11717 235
11718 235
11719 235
11720 235
11721 235
11722 235
11723 235
11724 235
11725 235
11726 235
11727 235
11728 235
11729 235
11730 235
11731 235
11732 235
11733 235
11734 235
11735 235
11736 235
11737 235
11738 235
11739 235
11740 235
11741 235
11742 235
11743 235
11744 235
11745 235
11746 235
11747 235
11748 235
11749 235
11750 235
11751 236
11752 236
11753 236
11754 236
11755 236
11756 236
11757 236
11758 236
11759 236
11760 236
11761 236
11762 236
11763 236
11764 236
11765 236
11766 236
11767 236
11768 236
11769 236
11770 236
11771 236
11772 236
11773 236
11774 236
11775 236
11776 236
11777 236
11778 236
11779 236
11780 236
11781 236
11782 236
11783 236
11784 236
11785 236
11786 236
11787 236
11788 236
11789 236
11790 236
11791 236
11792 236
11793 236
11794 236
11795 236
11796 236
11797 236
11798 236
11799 236
11800 236
11801 237
11802 237
11803 237
11804 237
11805 237
11806 237
11807 237
11808 237
11809 237
11810 237
11811 237
11812 237
11813 237
11814 237
11815 237
11816 237
11817 237
11818 237
11819 237
11820 237
11821 237
11822 237
11823 237
11824 237
11825 237
11826 237
11827 237
11828 237
11829 237
11830 237
11831 237
11832 237
11833 237
11834 237
11835 237
11836 237
11837 237
11838 237
11839 237
11840 237
11841 237
11842 237
11843 237
11844 237
11845 237
11846 237
11847 237
11848 237
11849 237
11850 237
11851 238
11852 238
11853 238
11854 238
11855 238
11856 238
11857 238
11858 238
11859 238
11860 238
11861 238
11862 238
11863 238
11864 238
11865 238
11866 238
11867 238
11868 238
11869 238
11870 238
11871 238
11872 238
11873 238
11874 238
11875 238
11876 238
11877 238
11878 238
11879 238
11880 238
11881 238
11882 238
11883 238
11884 238
11885 238
11886 238
11887 238
11888 238
11889 238
11890 238
11891 238
11892 238
11893 238
11894 238
11895 238
11896 238
11897 238
11898 238
11899 238
11900 238
11901 239
11902 239
11903 239
11904 239
11905 239
11906 239
11907 239
11908 239
11909 239
11910 239
11911 239
11912 239
11913 239
11914 239
11915 239
11916 239
11917 239
11918 239
11919 239
11920 239
11921 239
11922 239
11923 239
11924 239
11925 239
11926 239
11927 239
11928 239
11929 239
11930 239
11931 239
11932 239
11933 239
11934 239
11935 239
11936 239
11937 239
11938 239
11939 239
11940 239
11941 239
11942 239
11943 239
11944 239
11945 239
11946 239
11947 239
11948 239
11949 239
11950 239
11951 240
11952 240
11953 240
11954 240
11955 240
11956 240
11957 240
11958 240
11959 240
11960 240
11961 240
11962 240
11963 240
11964 240
11965 240
11966 240
11967 240
11968 240
11969 240
11970 240
11971 240
11972 240
11973 240
11974 240
11975 240
11976 240
11977 240
11978 240
11979 240
11980 240
11981 240
11982 240
11983 240
11984 240
11985 240
11986 240
11987 240
11988 240
11989 240
11990 240
11991 240
11992 240
11993 240
11994 240
11995 240
11996 240
11997 240
11998 240
11999 240
12000 240
12001 241
12002 241
12003 241
12004 241
12005 241
12006 241
12007 241
12008 241
12009 241
12010 241
12011 241
12012 241
12013 241
12014 241
12015 241
12016 241
12017 241
12018 241
12019 241
12020 241
12021 241
12022 241
12023 241
12024 241
12025 241
12026 241
12027 241
12028 241
12029 241
12030 241
12031 241
12032 241
12033 241
12034 241
12035 241
12036 241
12037 241
12038 241
12039 241
12040 241
12041 241
12042 241
12043 241
12044 241
12045 241
12046 241
12047 241
12048 241
12049 241
12050 241
12051 242
12052 242
12053 242
12054 242
12055 242
12056 242
12057 242
12058 242
12059 242
12060 242
12061 242
12062 242
12063 242
12064 242
12065 242
12066 242
12067 242
12068 242
12069 242
12070 242
12071 242
12072 242
12073 242
12074 242
12075 242
12076 242
12077 242
12078 242
12079 242
12080 242
12081 242
12082 242
12083 242
12084 242
12085 242
12086 242
12087 242
12088 242
12089 242
12090 242
12091 242
12092 242
12093 242
12094 242
12095 242
12096 242
12097 242
12098 242
12099 242
12100 242
12101 243
12102 243
12103 243
12104 243
12105 243
12106 243
12107 243
12108 243
12109 243
12110 243
12111 243
12112 243
12113 243
12114 243
12115 243
12116 243
12117 243
12118 243
12119 243
12120 243
12121 243
12122 243
12123 243
12124 243
12125 243
12126 243
12127 243
12128 243
12129 243
12130 243
12131 243
12132 243
12133 243
12134 243
12135 243
12136 243
12137 243
12138 243
12139 243
12140 243
12141 243
12142 243
12143 243
12144 243
12145 243
12146 243
12147 243
12148 243
12149 243
12150 243
12151 244
12152 244
12153 244
12154 244
12155 244
12156 244
12157 244
12158 244
12159 244
12160 244
12161 244
12162 244
12163 244
12164 244
12165 244
12166 244
12167 244
12168 244
12169 244
12170 244
12171 244
12172 244
12173 244
12174 244
12175 244
12176 244
12177 244
12178 244
12179 244
12180 244
12181 244
12182 244
12183 244
12184 244
12185 244
12186 244
12187 244
12188 244
12189 244
12190 244
12191 244
12192 244
12193 244
12194 244
12195 244
12196 244
12197 244
12198 244
12199 244
12200 244
12201 245
12202 245
12203 245
12204 245
12205 245
12206 245
12207 245
12208 245
12209 245
12210 245
12211 245
12212 245
12213 245
12214 245
12215 245
12216 245
12217 245
12218 245
12219 245
12220 245
12221 245
12222 245
12223 245
12224 245
12225 245
12226 245
12227 245
12228 245
12229 245
12230 245
12231 245
12232 245
12233 245
12234 245
12235 245
12236 245
12237 245
12238 245
12239 245
12240 245
12241 245
12242 245
12243 245
12244 245
12245 245
12246 245
12247 245
12248 245
12249 245
12250 245
12251 246
12252 246
12253 246
12254 246
12255 246
12256 246
12257 246
12258 246
12259 246
12260 246
12261 246
12262 246
12263 246
12264 246
12265 246
12266 246
12267 246
12268 246
12269 246
12270 246
12271 246
12272 246
12273 246
12274 246
12275 246
12276 246
12277 246
12278 246
12279 246
12280 246
12281 246
12282 246
12283 246
12284 246
12285 246
12286 246
12287 246
12288 246
12289 246
12290 246
12291 246
12292 246
12293 246
12294 246
12295 246
12296 246
12297 246
12298 246
12299 246
12300 246
12301 247
12302 247
12303 247
12304 247
12305 247
12306 247
12307 247
12308 247
12309 247
12310 247
12311 247
12312 247
12313 247
12314 247
12315 247
12316 247
12317 247
12318 247
12319 247
12320 247
12321 247
12322 247
12323 247
12324 247
12325 247
12326 247
12327 247
12328 247
12329 247
12330 247
12331 247
12332 247
12333 247
12334 247
12335 247
12336 247
12337 247
12338 247
12339 247
12340 247
12341 247
12342 247
12343 247
12344 247
12345 247
12346 247
12347 247
12348 247
12349 247
12350 247
12351 248
12352 248
12353 248
12354 248
12355 248
12356 248
12357 248
12358 248
12359 248
12360 248
12361 248
12362 248
12363 248
12364 248
12365 248
12366 248
12367 248
12368 248
12369 248
12370 248
12371 248
12372 248
12373 248
12374 248
12375 248
12376 248
12377 248
12378 248
12379 248
12380 248
12381 248
12382 248
12383 248
12384 248
12385 248
12386 248
12387 248
12388 248
12389 248
12390 248
12391 248
12392 248
12393 248
12394 248
12395 248
12396 248
12397 248
12398 248
12399 248
12400 248
12401 249
12402 249
12403 249
12404 249
12405 249
12406 249
12407 249
12408 249
12409 249
12410 249
12411 249
12412 249
12413 249
12414 249
12415 249
12416 249
12417 249
12418 249
12419 249
12420 249
12421 249
12422 249
12423 249
12424 249
12425 249
12426 249
12427 249
12428 249
12429 249
12430 249
12431 249
12432 249
12433 249
12434 249
12435 249
12436 249
12437 249
12438 249
12439 249
12440 249
12441 249
12442 249
12443 249
12444 249
12445 249
12446 249
12447 249
12448 249
12449 249
12450 249
12451 250
12452 250
12453 250
12454 250
12455 250
12456 250
12457 250
12458 250
12459 250
12460 250
12461 250
12462 250
12463 250
12464 250
12465 250
12466 250
12467 250
12468 250
12469 250
12470 250
12471 250
12472 250
12473 250
12474 250
12475 250
12476 250
12477 250
12478 250
12479 250
12480 250
12481 250
12482 250
12483 250
12484 250
12485 250
12486 250
12487 250
12488 250
12489 250
12490 250
12491 250
12492 250
12493 250
12494 250
12495 250
12496 250
12497 250
12498 250
12499 250
12500 250
12501 251
12502 251
12503 251
12504 251
12505 251
12506 251
12507 251
12508 251
12509 251
12510 251
12511 251
12512 251
12513 251
12514 251
12515 251
12516 251
12517 251
12518 251
12519 251
12520 251
12521 251
12522 251
12523 251
12524 251
12525 251
12526 251
12527 251
12528 251
12529 251
12530 251
12531 251
12532 251
12533 251
12534 251
12535 251
12536 251
12537 251
12538 251
12539 251
12540 251
12541 251
12542 251
12543 251
12544 251
12545 251
12546 251
12547 251
12548 251
12549 251
12550 251
12551 252
12552 252
12553 252
12554 252
12555 252
12556 252
12557 252
12558 252
12559 252
12560 252
12561 252
12562 252
12563 252
12564 252
12565 252
12566 252
12567 252
12568 252
12569 252
12570 252
12571 252
12572 252
12573 252
12574 252
12575 252
12576 252
12577 252
12578 252
12579 252
12580 252
12581 252
12582 252
12583 252
12584 252
12585 252
12586 252
12587 252
12588 252
12589 252
12590 252
12591 252
12592 252
12593 252
12594 252
12595 252
12596 252
12597 252
12598 252
12599 252
12600 252
12601 253
12602 253
12603 253
12604 253
12605 253
12606 253
12607 253
12608 253
12609 253
12610 253
12611 253
12612 253
12613 253
12614 253
12615 253
12616 253
12617 253
12618 253
12619 253
12620 253
12621 253
12622 253
12623 253
12624 253
12625 253
12626 253
12627 253
12628 253
12629 253
12630 253
12631 253
12632 253
12633 253
12634 253
12635 253
12636 253
12637 253
12638 253
12639 253
12640 253
12641 253
12642 253
12643 253
12644 253
12645 253
12646 253
12647 253
12648 253
12649 253
12650 253
12651 254
12652 254
12653 254
12654 254
12655 254
12656 254
12657 254
12658 254
12659 254
12660 254
12661 254
12662 254
12663 254
12664 254
12665 254
12666 254
12667 254
12668 254
12669 254
12670 254
12671 254
12672 254
12673 254
12674 254
12675 254
12676 254
12677 254
12678 254
12679 254
12680 254
12681 254
12682 254
12683 254
12684 254
12685 254
12686 254
12687 254
12688 254
12689 254
12690 254
12691 254
12692 254
12693 254
12694 254
12695 254
12696 254
12697 254
12698 254
12699 254
12700 254
12701 255
12702 255
12703 255
12704 255
12705 255
12706 255
12707 255
12708 255
12709 255
12710 255
12711 255
12712 255
12713 255
12714 255
12715 255
12716 255
12717 255
12718 255
12719 255
12720 255
12721 255
12722 255
12723 255
12724 255
12725 255
12726 255
12727 255
12728 255
12729 255
12730 255
12731 255
12732 255
12733 255
12734 255
12735 255
12736 255
12737 255
12738 255
12739 255
12740 255
12741 255
12742 255
12743 255
12744 255
12745 255
12746 255
12747 255
12748 255
12749 255
12750 255
12751 256
12752 256
12753 256
12754 256
12755 256
12756 256
12757 256
12758 256
12759 256
12760 256
12761 256
12762 256
12763 256
12764 256
12765 256
12766 256
12767 256
12768 256
12769 256
12770 256
12771 256
12772 256
12773 256
12774 256
12775 256
12776 256
12777 256
12778 256
12779 256
12780 256
12781 256
12782 256
12783 256
12784 256
12785 256
12786 256
12787 256
12788 256
12789 256
12790 256
12791 256
12792 256
12793 256
12794 256
12795 256
12796 256
12797 256
12798 256
12799 256
12800 256
12801 257
12802 257
12803 257
12804 257
12805 257
12806 257
12807 257
12808 257
12809 257
12810 257
12811 257
12812 257
12813 257
12814 257
12815 257
12816 257
12817 257
12818 257
12819 257
12820 257
12821 257
12822 257
12823 257
12824 257
12825 257
12826 257
12827 257
12828 257
12829 257
12830 257
12831 257
12832 257
12833 257
12834 257
12835 257
12836 257
12837 257
12838 257
12839 257
12840 257
12841 257
12842 257
12843 257
12844 257
12845 257
12846 257
12847 257
12848 257
12849 257
12850 257
12851 258
12852 258
12853 258
12854 258
12855 258
12856 258
12857 258
12858 258
12859 258
12860 258
12861 258
12862 258
12863 258
12864 258
12865 258
12866 258
12867 258
12868 258
12869 258
12870 258
12871 258
12872 258
12873 258
12874 258
12875 258
12876 258
12877 258
12878 258
12879 258
12880 258
12881 258
12882 258
12883 258
12884 258
12885 258
12886 258
12887 258
12888 258
12889 258
12890 258
12891 258
12892 258
12893 258
12894 258
12895 258
12896 258
12897 258
12898 258
12899 258
12900 258
12901 259
12902 259
12903 259
12904 259
12905 259
12906 259
12907 259
12908 259
12909 259
12910 259
12911 259
12912 259
12913 259
12914 259
12915 259
12916 259
12917 259
12918 259
12919 259
12920 259
12921 259
12922 259
12923 259
12924 259
12925 259
12926 259
12927 259
12928 259
12929 259
12930 259
12931 259
12932 259
12933 259
12934 259
12935 259
12936 259
12937 259
12938 259
12939 259
12940 259
12941 259
12942 259
12943 259
12944 259
12945 259
12946 259
12947 259
12948 259
12949 259
12950 259
12951 260
12952 260
12953 260
12954 260
12955 260
12956 260
12957 260
12958 260
12959 260
12960 260
12961 260
12962 260
12963 260
12964 260
12965 260
12966 260
12967 260
12968 260
12969 260
12970 260
12971 260
12972 260
12973 260
12974 260
12975 260
12976 260
12977 260
12978 260
12979 260
12980 260
12981 260
12982 260
12983 260
12984 260
12985 260
12986 260
12987 260
12988 260
12989 260
12990 260
12991 260
12992 260
12993 260
12994 260
12995 260
12996 260
12997 260
12998 260
12999 260
13000 260
13001 261
13002 261
13003 261
13004 261
13005 261
13006 261
13007 261
13008 261
13009 261
13010 261
13011 261
13012 261
13013 261
13014 261
13015 261
13016 261
13017 261
13018 261
13019 261
13020 261
13021 261
13022 261
13023 261
13024 261
13025 261
13026 261
13027 261
13028 261
13029 261
13030 261
13031 261
13032 261
13033 261
13034 261
13035 261
13036 261
13037 261
13038 261
13039 261
13040 261
13041 261
13042 261
13043 261
13044 261
13045 261
13046 261
13047 261
13048 261
13049 261
13050 261
13051 262
13052 262
13053 262
13054 262
13055 262
13056 262
13057 262
13058 262
13059 262
13060 262
13061 262
13062 262
13063 262
13064 262
13065 262
13066 262
13067 262
13068 262
13069 262
13070 262
13071 262
13072 262
13073 262
13074 262
13075 262
13076 262
13077 262
13078 262
13079 262
13080 262
13081 262
13082 262
13083 262
13084 262
13085 262
13086 262
13087 262
13088 262
13089 262
13090 262
13091 262
13092 262
13093 262
13094 262
13095 262
13096 262
13097 262
13098 262
13099 262
13100 262
13101 263
13102 263
13103 263
13104 263
13105 263
13106 263
13107 263
13108 263
13109 263
13110 263
13111 263
13112 263
13113 263
13114 263
13115 263
13116 263
13117 263
13118 263
13119 263
13120 263
13121 263
13122 263
13123 263
13124 263
13125 263
13126 263
13127 263
13128 263
13129 263
13130 263
13131 263
13132 263
13133 263
13134 263
13135 263
13136 263
13137 263
13138 263
13139 263
13140 263
13141 263
13142 263
13143 263
13144 263
13145 263
13146 263
13147 263
13148 263
13149 263
13150 263
13151 264
13152 264
13153 264
13154 264
13155 264
13156 264
13157 264
13158 264
13159 264
13160 264
13161 264
13162 264
13163 264
13164 264
13165 264
13166 264
13167 264
13168 264
13169 264
13170 264
13171 264
13172 264
13173 264
13174 264
13175 264
13176 264
13177 264
13178 264
13179 264
13180 264
13181 264
13182 264
13183 264
13184 264
13185 264
13186 264
13187 264
13188 264
13189 264
13190 264
13191 264
13192 264
13193 264
13194 264
13195 264
13196 264
13197 264
13198 264
13199 264
13200 264
13201 265
13202 265
13203 265
13204 265
13205 265
13206 265
13207 265
13208 265
13209 265
13210 265
13211 265
13212 265
13213 265
13214 265
13215 265
13216 265
13217 265
13218 265
13219 265
13220 265
13221 265
13222 265
13223 265
13224 265
13225 265
13226 265
13227 265
13228 265
13229 265
13230 265
13231 265
13232 265
13233 265
13234 265
13235 265
13236 265
13237 265
13238 265
13239 265
13240 265
13241 265
13242 265
13243 265
13244 265
13245 265
13246 265
13247 265
13248 265
13249 265
13250 265
13251 266
13252 266
13253 266
13254 266
13255 266
13256 266
13257 266
13258 266
13259 266
13260 266
13261 266
13262 266
13263 266
13264 266
13265 266
13266 266
13267 266
13268 266
13269 266
13270 266
13271 266
13272 266
13273 266
13274 266
13275 266
13276 266
13277 266
13278 266
13279 266
13280 266
13281 266
13282 266
13283 266
13284 266
13285 266
13286 266
13287 266
13288 266
13289 266
13290 266
13291 266
13292 266
13293 266
13294 266
13295 266
13296 266
13297 266
13298 266
13299 266
13300 266
13301 267
13302 267
13303 267
13304 267
13305 267
13306 267
13307 267
13308 267
13309 267
13310 267
13311 267
13312 267
13313 267
13314 267
13315 267
13316 267
13317 267
13318 267
13319 267
13320 267
13321 267
13322 267
13323 267
13324 267
13325 267
13326 267
13327 267
13328 267
13329 267
13330 267
13331 267
13332 267
13333 267
13334 267
13335 267
13336 267
13337 267
13338 267
13339 267
13340 267
13341 267
13342 267
13343 267
13344 267
13345 267
13346 267
13347 267
13348 267
13349 267
13350 267
13351 268
13352 268
13353 268
13354 268
13355 268
13356 268
13357 268
13358 268
13359 268
13360 268
13361 268
13362 268
13363 268
13364 268
13365 268
13366 268
13367 268
13368 268
13369 268
13370 268
13371 268
13372 268
13373 268
13374 268
13375 268
13376 268
13377 268
13378 268
13379 268
13380 268
13381 268
13382 268
13383 268
13384 268
13385 268
13386 268
13387 268
13388 268
13389 268
13390 268
13391 268
13392 268
13393 268
13394 268
13395 268
13396 268
13397 268
13398 268
13399 268
13400 268
13401 269
13402 269
13403 269
13404 269
13405 269
13406 269
13407 269
13408 269
13409 269
13410 269
13411 269
13412 269
13413 269
13414 269
13415 269
13416 269
13417 269
13418 269
13419 269
13420 269
13421 269
13422 269
13423 269
13424 269
13425 269
13426 269
13427 269
13428 269
13429 269
13430 269
13431 269
13432 269
13433 269
13434 269
13435 269
13436 269
13437 269
13438 269
13439 269
13440 269
13441 269
13442 269
13443 269
13444 269
13445 269
13446 269
13447 269
13448 269
13449 269
13450 269
13451 270
13452 270
13453 270
13454 270
13455 270
13456 270
13457 270
13458 270
13459 270
13460 270
13461 270
13462 270
13463 270
13464 270
13465 270
13466 270
13467 270
13468 270
13469 270
13470 270
13471 270
13472 270
13473 270
13474 270
13475 270
13476 270
13477 270
13478 270
13479 270
13480 270
13481 270
13482 270
13483 270
13484 270
13485 270
13486 270
13487 270
13488 270
13489 270
13490 270
13491 270
13492 270
13493 270
13494 270
13495 270
13496 270
13497 270
13498 270
13499 270
13500 270
13501 271
13502 271
13503 271
13504 271
13505 271
13506 271
13507 271
13508 271
13509 271
13510 271
13511 271
13512 271
13513 271
13514 271
13515 271
13516 271
13517 271
13518 271
13519 271
13520 271
13521 271
13522 271
13523 271
13524 271
13525 271
13526 271
13527 271
13528 271
13529 271
13530 271
13531 271
13532 271
13533 271
13534 271
13535 271
13536 271
13537 271
13538 271
13539 271
13540 271
13541 271
13542 271
13543 271
13544 271
13545 271
13546 271
13547 271
13548 271
13549 271
13550 271
13551 272
13552 272
13553 272
13554 272
13555 272
13556 272
13557 272
13558 272
13559 272
13560 272
13561 272
13562 272
13563 272
13564 272
13565 272
13566 272
13567 272
13568 272
13569 272
13570 272
13571 272
13572 272
13573 272
13574 272
13575 272
13576 272
13577 272
13578 272
13579 272
13580 272
13581 272
13582 272
13583 272
13584 272
13585 272
13586 272
13587 272
13588 272
13589 272
13590 272
13591 272
13592 272
13593 272
13594 272
13595 272
13596 272
13597 272
13598 272
13599 272
13600 272
13601 273
13602 273
13603 273
13604 273
13605 273
13606 273
13607 273
13608 273
13609 273
13610 273
13611 273
13612 273
13613 273
13614 273
13615 273
13616 273
13617 273
13618 273
13619 273
13620 273
13621 273
13622 273
13623 273
13624 273
13625 273
13626 273
13627 273
13628 273
13629 273
13630 273
13631 273
13632 273
13633 273
13634 273
13635 273
13636 273
13637 273
13638 273
13639 273
13640 273
13641 273
13642 273
13643 273
13644 273
13645 273
13646 273
13647 273
13648 273
13649 273
13650 273
13651 274
13652 274
13653 274
13654 274
13655 274
13656 274
13657 274
13658 274
13659 274
13660 274
13661 274
13662 274
13663 274
13664 274
13665 274
13666 274
13667 274
13668 274
13669 274
13670 274
13671 274
13672 274
13673 274
13674 274
13675 274
13676 274
13677 274
13678 274
13679 274
13680 274
13681 274
13682 274
13683 274
13684 274
13685 274
13686 274
13687 274
13688 274
13689 274
13690 274
13691 274
13692 274
13693 274
13694 274
13695 274
13696 274
13697 274
13698 274
13699 274
13700 274
13701 275
13702 275
13703 275
13704 275
13705 275
13706 275
13707 275
13708 275
13709 275
13710 275
13711 275
13712 275
13713 275
13714 275
13715 275
13716 275
13717 275
13718 275
13719 275
13720 275
13721 275
13722 275
13723 275
13724 275
13725 275
13726 275
13727 275
13728 275
13729 275
13730 275
13731 275
13732 275
13733 275
13734 275
13735 275
13736 275
13737 275
13738 275
13739 275
13740 275
13741 275
13742 275
13743 275
13744 275
13745 275
13746 275
13747 275
13748 275
13749 275
13750 275
13751 276
13752 276
13753 276
13754 276
13755 276
13756 276
13757 276
13758 276
13759 276
13760 276
13761 276
13762 276
13763 276
13764 276
13765 276
13766 276
13767 276
13768 276
13769 276
13770 276
13771 276
13772 276
13773 276
13774 276
13775 276
13776 276
13777 276
13778 276
13779 276
13780 276
13781 276
13782 276
13783 276
13784 276
13785 276
13786 276
13787 276
13788 276
13789 276
13790 276
13791 276
13792 276
13793 276
13794 276
13795 276
13796 276
13797 276
13798 276
13799 276
13800 276
13801 277
13802 277
13803 277
13804 277
13805 277
13806 277
13807 277
13808 277
13809 277
13810 277
13811 277
13812 277
13813 277
13814 277
13815 277
13816 277
13817 277
13818 277
13819 277
13820 277
13821 277
13822 277
13823 277
13824 277
13825 277
13826 277
13827 277
13828 277
13829 277
13830 277
13831 277
13832 277
13833 277
13834 277
13835 277
13836 277
13837 277
13838 277
13839 277
13840 277
13841 277
13842 277
13843 277
13844 277
13845 277
13846 277
13847 277
13848 277
13849 277
13850 277
13851 278
13852 278
13853 278
13854 278
13855 278
13856 278
13857 278
13858 278
13859 278
13860 278
13861 278
13862 278
13863 278
13864 278
13865 278
13866 278
13867 278
13868 278
13869 278
13870 278
13871 278
13872 278
13873 278
13874 278
13875 278
13876 278
13877 278
13878 278
13879 278
13880 278
13881 278
13882 278
13883 278
13884 278
13885 278
13886 278
13887 278
13888 278
13889 278
13890 278
13891 278
13892 278
13893 278
13894 278
13895 278
13896 278
13897 278
13898 278
13899 278
13900 278
13901 279
13902 279
13903 279
13904 279
13905 279
13906 279
13907 279
13908 279
13909 279
13910 279
13911 279
13912 279
13913 279
13914 279
13915 279
13916 279
13917 279
13918 279
13919 279
13920 279
13921 279
13922 279
13923 279
13924 279
13925 279
13926 279
13927 279
13928 279
13929 279
13930 279
13931 279
13932 279
13933 279
13934 279
13935 279
13936 279
13937 279
13938 279
13939 279
13940 279
13941 279
13942 279
13943 279
13944 279
13945 279
13946 279
13947 279
13948 279
13949 279
13950 279
13951 280
13952 280
13953 280
13954 280
13955 280
13956 280
13957 280
13958 280
13959 280
13960 280
13961 280
13962 280
13963 280
13964 280
13965 280
13966 280
13967 280
13968 280
13969 280
13970 280
13971 280
13972 280
13973 280
13974 280
13975 280
13976 280
13977 280
13978 280
13979 280
13980 280
13981 280
13982 280
13983 280
13984 280
13985 280
13986 280
13987 280
13988 280
13989 280
13990 280
13991 280
13992 280
13993 280
13994 280
13995 280
13996 280
13997 280
13998 280
13999 280
14000 280
14001 281
14002 281
14003 281
14004 281
14005 281
14006 281
14007 281
14008 281
14009 281
14010 281
14011 281
14012 281
14013 281
14014 281
14015 281
14016 281
14017 281
14018 281
14019 281
14020 281
14021 281
14022 281
14023 281
14024 281
14025 281
14026 281
14027 281
14028 281
14029 281
14030 281
14031 281
14032 281
14033 281
14034 281
14035 281
14036 281
14037 281
14038 281
14039 281
14040 281
14041 281
14042 281
14043 281
14044 281
14045 281
14046 281
14047 281
14048 281
14049 281
14050 281
14051 282
14052 282
14053 282
14054 282
14055 282
14056 282
14057 282
14058 282
14059 282
14060 282
14061 282
14062 282
14063 282
14064 282
14065 282
14066 282
14067 282
14068 282
14069 282
14070 282
14071 282
14072 282
14073 282
14074 282
14075 282
14076 282
14077 282
14078 282
14079 282
14080 282
14081 282
14082 282
14083 282
14084 282
14085 282
14086 282
14087 282
14088 282
14089 282
14090 282
14091 282
14092 282
14093 282
14094 282
14095 282
14096 282
14097 282
14098 282
14099 282
14100 282
14101 283
14102 283
14103 283
14104 283
14105 283
14106 283
14107 283
14108 283
14109 283
14110 283
14111 283
14112 283
14113 283
14114 283
14115 283
14116 283
14117 283
14118 283
14119 283
14120 283
14121 283
14122 283
14123 283
14124 283
14125 283
14126 283
14127 283
14128 283
14129 283
14130 283
14131 283
14132 283
14133 283
14134 283
14135 283
14136 283
14137 283
14138 283
14139 283
14140 283
14141 283
14142 283
14143 283
14144 283
14145 283
14146 283
14147 283
14148 283
14149 283
14150 283
14151 284
14152 284
14153 284
14154 284
14155 284
14156 284
14157 284
14158 284
14159 284
14160 284
14161 284
14162 284
14163 284
14164 284
14165 284
14166 284
14167 284
14168 284
14169 284
14170 284
14171 284
14172 284
14173 284
14174 284
14175 284
14176 284
14177 284
14178 284
14179 284
14180 284
14181 284
14182 284
14183 284
14184 284
14185 284
14186 284
14187 284
14188 284
14189 284
14190 284
14191 284
14192 284
14193 284
14194 284
14195 284
14196 284
14197 284
14198 284
14199 284
14200 284
14201 285
14202 285
14203 285
14204 285
14205 285
14206 285
14207 285
14208 285
14209 285
14210 285
14211 285
14212 285
14213 285
14214 285
14215 285
14216 285
14217 285
14218 285
14219 285
14220 285
14221 285
14222 285
14223 285
14224 285
14225 285
14226 285
14227 285
14228 285
14229 285
14230 285
14231 285
14232 285
14233 285
14234 285
14235 285
14236 285
14237 285
14238 285
14239 285
14240 285
14241 285
14242 285
14243 285
14244 285
14245 285
14246 285
14247 285
14248 285
14249 285
14250 285
14251 286
14252 286
14253 286
14254 286
14255 286
14256 286
14257 286
14258 286
14259 286
14260 286
14261 286
14262 286
14263 286
14264 286
14265 286
14266 286
14267 286
14268 286
14269 286
14270 286
14271 286
14272 286
14273 286
14274 286
14275 286
14276 286
14277 286
14278 286
14279 286
14280 286
14281 286
14282 286
14283 286
14284 286
14285 286
14286 286
14287 286
14288 286
14289 286
14290 286
14291 286
14292 286
14293 286
14294 286
14295 286
14296 286
14297 286
14298 286
14299 286
14300 286
14301 287
14302 287
14303 287
14304 287
14305 287
14306 287
14307 287
14308 287
14309 287
14310 287
14311 287
14312 287
14313 287
14314 287
14315 287
14316 287
14317 287
14318 287
14319 287
14320 287
14321 287
14322 287
14323 287
14324 287
14325 287
14326 287
14327 287
14328 287
14329 287
14330 287
14331 287
14332 287
14333 287
14334 287
14335 287
14336 287
14337 287
14338 287
14339 287
14340 287
14341 287
14342 287
14343 287
14344 287
14345 287
14346 287
14347 287
14348 287
14349 287
14350 287
14351 288
14352 288
14353 288
14354 288
14355 288
14356 288
14357 288
14358 288
14359 288
14360 288
14361 288
14362 288
14363 288
14364 288
14365 288
14366 288
14367 288
14368 288
14369 288
14370 288
14371 288
14372 288
14373 288
14374 288
14375 288
14376 288
14377 288
14378 288
14379 288
14380 288
14381 288
14382 288
14383 288
14384 288
14385 288
14386 288
14387 288
14388 288
14389 288
14390 288
14391 288
14392 288
14393 288
14394 288
14395 288
14396 288
14397 288
14398 288
14399 288
14400 288
14401 289
14402 289
14403 289
14404 289
14405 289
14406 289
14407 289
14408 289
14409 289
14410 289
14411 289
14412 289
14413 289
14414 289
14415 289
14416 289
14417 289
14418 289
14419 289
14420 289
14421 289
14422 289
14423 289
14424 289
14425 289
14426 289
14427 289
14428 289
14429 289
14430 289
14431 289
14432 289
14433 289
14434 289
14435 289
14436 289
14437 289
14438 289
14439 289
14440 289
14441 289
14442 289
14443 289
14444 289
14445 289
14446 289
14447 289
14448 289
14449 289
14450 289
14451 290
14452 290
14453 290
14454 290
14455 290
14456 290
14457 290
14458 290
14459 290
14460 290
14461 290
14462 290
14463 290
14464 290
14465 290
14466 290
14467 290
14468 290
14469 290
14470 290
14471 290
14472 290
14473 290
14474 290
14475 290
14476 290
14477 290
14478 290
14479 290
14480 290
14481 290
14482 290
14483 290
14484 290
14485 290
14486 290
14487 290
14488 290
14489 290
14490 290
14491 290
14492 290
14493 290
14494 290
14495 290
14496 290
14497 290
14498 290
14499 290
14500 290
14501 291
14502 291
14503 291
14504 291
14505 291
14506 291
14507 291
14508 291
14509 291
14510 291
14511 291
14512 291
14513 291
14514 291
14515 291
14516 291
14517 291
14518 291
14519 291
14520 291
14521 291
14522 291
14523 291
14524 291
14525 291
14526 291
14527 291
14528 291
14529 291
14530 291
14531 291
14532 291
14533 291
14534 291
14535 291
14536 291
14537 291
14538 291
14539 291
14540 291
14541 291
14542 291
14543 291
14544 291
14545 291
14546 291
14547 291
14548 291
14549 291
14550 291
14551 292
14552 292
14553 292
14554 292
14555 292
14556 292
14557 292
14558 292
14559 292
14560 292
14561 292
14562 292
14563 292
14564 292
14565 292
14566 292
14567 292
14568 292
14569 292
14570 292
14571 292
14572 292
14573 292
14574 292
14575 292
14576 292
14577 292
14578 292
14579 292
14580 292
14581 292
14582 292
14583 292
14584 292
14585 292
14586 292
14587 292
14588 292
14589 292
14590 292
14591 292
14592 292
14593 292
14594 292
14595 292
14596 292
14597 292
14598 292
14599 292
14600 292
14601 293
14602 293
14603 293
14604 293
14605 293
14606 293
14607 293
14608 293
14609 293
14610 293
14611 293
14612 293
14613 293
14614 293
14615 293
14616 293
14617 293
14618 293
14619 293
14620 293
14621 293
14622 293
14623 293
14624 293
14625 293
14626 293
14627 293
14628 293
14629 293
14630 293
14631 293
14632 293
14633 293
14634 293
14635 293
14636 293
14637 293
14638 293
14639 293
14640 293
14641 293
14642 293
14643 293
14644 293
14645 293
14646 293
14647 293
14648 293
14649 293
14650 293
14651 294
14652 294
14653 294
14654 294
14655 294
14656 294
14657 294
14658 294
14659 294
14660 294
14661 294
14662 294
14663 294
14664 294
14665 294
14666 294
14667 294
14668 294
14669 294
14670 294
14671 294
14672 294
14673 294
14674 294
14675 294
14676 294
14677 294
14678 294
14679 294
14680 294
14681 294
14682 294
14683 294
14684 294
14685 294
14686 294
14687 294
14688 294
14689 294
14690 294
14691 294
14692 294
14693 294
14694 294
14695 294
14696 294
14697 294
14698 294
14699 294
14700 294
14701 295
14702 295
14703 295
14704 295
14705 295
14706 295
14707 295
14708 295
14709 295
14710 295
14711 295
14712 295
14713 295
14714 295
14715 295
14716 295
14717 295
14718 295
14719 295
14720 295
14721 295
14722 295
14723 295
14724 295
14725 295
14726 295
14727 295
14728 295
14729 295
14730 295
14731 295
14732 295
14733 295
14734 295
14735 295
14736 295
14737 295
14738 295
14739 295
14740 295
14741 295
14742 295
14743 295
14744 295
14745 295
14746 295
14747 295
14748 295
14749 295
14750 295
14751 296
14752 296
14753 296
14754 296
14755 296
14756 296
14757 296
14758 296
14759 296
14760 296
14761 296
14762 296
14763 296
14764 296
14765 296
14766 296
14767 296
14768 296
14769 296
14770 296
14771 296
14772 296
14773 296
14774 296
14775 296
14776 296
14777 296
14778 296
14779 296
14780 296
14781 296
14782 296
14783 296
14784 296
14785 296
14786 296
14787 296
14788 296
14789 296
14790 296
14791 296
14792 296
14793 296
14794 296
14795 296
14796 296
14797 296
14798 296
14799 296
14800 296
14801 297
14802 297
14803 297
14804 297
14805 297
14806 297
14807 297
14808 297
14809 297
14810 297
14811 297
14812 297
14813 297
14814 297
14815 297
14816 297
14817 297
14818 297
14819 297
14820 297
14821 297
14822 297
14823 297
14824 297
14825 297
14826 297
14827 297
14828 297
14829 297
14830 297
14831 297
14832 297
14833 297
14834 297
14835 297
14836 297
14837 297
14838 297
14839 297
14840 297
14841 297
14842 297
14843 297
14844 297
14845 297
14846 297
14847 297
14848 297
14849 297
14850 297
14851 298
14852 298
14853 298
14854 298
14855 298
14856 298
14857 298
14858 298
14859 298
14860 298
14861 298
14862 298
14863 298
14864 298
14865 298
14866 298
14867 298
14868 298
14869 298
14870 298
14871 298
14872 298
14873 298
14874 298
14875 298
14876 298
14877 298
14878 298
14879 298
14880 298
14881 298
14882 298
14883 298
14884 298
14885 298
14886 298
14887 298
14888 298
14889 298
14890 298
14891 298
14892 298
14893 298
14894 298
14895 298
14896 298
14897 298
14898 298
14899 298
14900 298
14901 299
14902 299
14903 299
14904 299
14905 299
14906 299
14907 299
14908 299
14909 299
14910 299
14911 299
14912 299
14913 299
14914 299
14915 299
14916 299
14917 299
14918 299
14919 299
14920 299
14921 299
14922 299
14923 299
14924 299
14925 299
14926 299
14927 299
14928 299
14929 299
14930 299
14931 299
14932 299
14933 299
14934 299
14935 299
14936 299
14937 299
14938 299
14939 299
14940 299
14941 299
14942 299
14943 299
14944 299
14945 299
14946 299
14947 299
14948 299
14949 299
14950 299
14951 300
14952 300
14953 300
14954 300
14955 300
14956 300
14957 300
14958 300
14959 300
14960 300
14961 300
14962 300
14963 300
14964 300
14965 300
14966 300
14967 300
14968 300
14969 300
14970 300
14971 300
14972 300
14973 300
14974 300
14975 300
14976 300
14977 300
14978 300
14979 300
14980 300
14981 300
14982 300
14983 300
14984 300
14985 300
14986 300
14987 300
14988 300
14989 300
14990 300
14991 300
14992 300
14993 300
14994 300
14995 300
14996 300
14997 300
14998 300
14999 300
15000 300
15001 301
15002 301
15003 301
15004 301
15005 301
15006 301
15007 301
15008 301
15009 301
15010 301
15011 301
15012 301
15013 301
15014 301
15015 301
15016 301
15017 301
15018 301
15019 301
15020 301
15021 301
15022 301
15023 301
15024 301
15025 301
15026 301
15027 301
15028 301
15029 301
15030 301
15031 301
15032 301
15033 301
15034 301
15035 301
15036 301
15037 301
15038 301
15039 301
15040 301
15041 301
15042 301
15043 301
15044 301
15045 301
15046 301
15047 301
15048 301
15049 301
15050 301
15051 302
15052 302
15053 302
15054 302
15055 302
15056 302
15057 302
15058 302
15059 302
15060 302
15061 302
15062 302
15063 302
15064 302
15065 302
15066 302
15067 302
15068 302
15069 302
15070 302
15071 302
15072 302
15073 302
15074 302
15075 302
15076 302
15077 302
15078 302
15079 302
15080 302
15081 302
15082 302
15083 302
15084 302
15085 302
15086 302
15087 302
15088 302
15089 302
15090 302
15091 302
15092 302
15093 302
15094 302
15095 302
15096 302
15097 302
15098 302
15099 302
15100 302
15101 303
15102 303
15103 303
15104 303
15105 303
15106 303
15107 303
15108 303
15109 303
15110 303
15111 303
15112 303
15113 303
15114 303
15115 303
15116 303
15117 303
15118 303
15119 303
15120 303
15121 303
15122 303
15123 303
15124 303
15125 303
15126 303
15127 303
15128 303
15129 303
15130 303
15131 303
15132 303
15133 303
15134 303
15135 303
15136 303
15137 303
15138 303
15139 303
15140 303
15141 303
15142 303
15143 303
15144 303
15145 303
15146 303
15147 303
15148 303
15149 303
15150 303
15151 304
15152 304
15153 304
15154 304
15155 304
15156 304
15157 304
15158 304
15159 304
15160 304
15161 304
15162 304
15163 304
15164 304
15165 304
15166 304
15167 304
15168 304
15169 304
15170 304
15171 304
15172 304
15173 304
15174 304
15175 304
15176 304
15177 304
15178 304
15179 304
15180 304
15181 304
15182 304
15183 304
15184 304
15185 304
15186 304
15187 304
15188 304
15189 304
15190 304
15191 304
15192 304
15193 304
15194 304
15195 304
15196 304
15197 304
15198 304
15199 304
15200 304
15201 305
15202 305
15203 305
15204 305
15205 305
15206 305
15207 305
15208 305
15209 305
15210 305
15211 305
15212 305
15213 305
15214 305
15215 305
15216 305
15217 305
15218 305
15219 305
15220 305
15221 305
15222 305
15223 305
15224 305
15225 305
15226 305
15227 305
15228 305
15229 305
15230 305
15231 305
15232 305
15233 305
15234 305
15235 305
15236 305
15237 305
15238 305
15239 305
15240 305
15241 305
15242 305
15243 305
15244 305
15245 305
15246 305
15247 305
15248 305
15249 305
15250 305
15251 306
15252 306
15253 306
15254 306
15255 306
15256 306
15257 306
15258 306
15259 306
15260 306
15261 306
15262 306
15263 306
15264 306
15265 306
15266 306
15267 306
15268 306
15269 306
15270 306
15271 306
15272 306
15273 306
15274 306
15275 306
15276 306
15277 306
15278 306
15279 306
15280 306
15281 306
15282 306
15283 306
15284 306
15285 306
15286 306
15287 306
15288 306
15289 306
15290 306
15291 306
15292 306
15293 306
15294 306
15295 306
15296 306
15297 306
15298 306
15299 306
15300 306
15301 307
15302 307
15303 307
15304 307
15305 307
15306 307
15307 307
15308 307
15309 307
15310 307
15311 307
15312 307
15313 307
15314 307
15315 307
15316 307
15317 307
15318 307
15319 307
15320 307
15321 307
15322 307
15323 307
15324 307
15325 307
15326 307
15327 307
15328 307
15329 307
15330 307
15331 307
15332 307
15333 307
15334 307
15335 307
15336 307
15337 307
15338 307
15339 307
15340 307
15341 307
15342 307
15343 307
15344 307
15345 307
15346 307
15347 307
15348 307
15349 307
15350 307
15351 308
15352 308
15353 308
15354 308
15355 308
15356 308
15357 308
15358 308
15359 308
15360 308
15361 308
15362 308
15363 308
15364 308
15365 308
15366 308
15367 308
15368 308
15369 308
15370 308
15371 308
15372 308
15373 308
15374 308
15375 308
15376 308
15377 308
15378 308
15379 308
15380 308
15381 308
15382 308
15383 308
15384 308
15385 308
15386 308
15387 308
15388 308
15389 308
15390 308
15391 308
15392 308
15393 308
15394 308
15395 308
15396 308
15397 308
15398 308
15399 308
15400 308
15401 309
15402 309
15403 309
15404 309
15405 309
15406 309
15407 309
15408 309
15409 309
15410 309
15411 309
15412 309
15413 309
15414 309
15415 309
15416 309
15417 309
15418 309
15419 309
15420 309
15421 309
15422 309
15423 309
15424 309
15425 309
15426 309
15427 309
15428 309
15429 309
15430 309
15431 309
15432 309
15433 309
15434 309
15435 309
15436 309
15437 309
15438 309
15439 309
15440 309
15441 309
15442 309
15443 309
15444 309
15445 309
15446 309
15447 309
15448 309
15449 309
15450 309
15451 310
15452 310
15453 310
15454 310
15455 310
15456 310
15457 310
15458 310
15459 310
15460 310
15461 310
15462 310
15463 310
15464 310
15465 310
15466 310
15467 310
15468 310
15469 310
15470 310
15471 310
15472 310
15473 310
15474 310
15475 310
15476 310
15477 310
15478 310
15479 310
15480 310
15481 310
15482 310
15483 310
15484 310
15485 310
15486 310
15487 310
15488 310
15489 310
15490 310
15491 310
15492 310
15493 310
15494 310
15495 310
15496 310
15497 310
15498 310
15499 310
15500 310
15501 311
15502 311
15503 311
15504 311
15505 311
15506 311
15507 311
15508 311
15509 311
15510 311
15511 311
15512 311
15513 311
15514 311
15515 311
15516 311
15517 311
15518 311
15519 311
15520 311
15521 311
15522 311
15523 311
15524 311
15525 311
15526 311
15527 311
15528 311
15529 311
15530 311
15531 311
15532 311
15533 311
15534 311
15535 311
15536 311
15537 311
15538 311
15539 311
15540 311
15541 311
15542 311
15543 311
15544 311
15545 311
15546 311
15547 311
15548 311
15549 311
15550 311
15551 312
15552 312
15553 312
15554 312
15555 312
15556 312
15557 312
15558 312
15559 312
15560 312
15561 312
15562 312
15563 312
15564 312
15565 312
15566 312
15567 312
15568 312
15569 312
15570 312
15571 312
15572 312
15573 312
15574 312
15575 312
15576 312
15577 312
15578 312
15579 312
15580 312
15581 312
15582 312
15583 312
15584 312
15585 312
15586 312
15587 312
15588 312
15589 312
15590 312
15591 312
15592 312
15593 312
15594 312
15595 312
15596 312
15597 312
15598 312
15599 312
15600 312
15601 313
15602 313
15603 313
15604 313
15605 313
15606 313
15607 313
15608 313
15609 313
15610 313
15611 313
15612 313
15613 313
15614 313
15615 313
15616 313
15617 313
15618 313
15619 313
15620 313
15621 313
15622 313
15623 313
15624 313
15625 313
15626 313
15627 313
15628 313
15629 313
15630 313
15631 313
15632 313
15633 313
15634 313
15635 313
15636 313
15637 313
15638 313
15639 313
15640 313
15641 313
15642 313
15643 313
15644 313
15645 313
15646 313
15647 313
15648 313
15649 313
15650 313
15651 314
15652 314
15653 314
15654 314
15655 314
15656 314
15657 314
15658 314
15659 314
15660 314
15661 314
15662 314
15663 314
15664 314
15665 314
15666 314
15667 314
15668 314
15669 314
15670 314
15671 314
15672 314
15673 314
15674 314
15675 314
15676 314
15677 314
15678 314
15679 314
15680 314
15681 314
15682 314
15683 314
15684 314
15685 314
15686 314
15687 314
15688 314
15689 314
15690 314
15691 314
15692 314
15693 314
15694 314
15695 314
15696 314
15697 314
15698 314
15699 314
15700 314
15701 315
15702 315
15703 315
15704 315
15705 315
15706 315
15707 315
15708 315
15709 315
15710 315
15711 315
15712 315
15713 315
15714 315
15715 315
15716 315
15717 315
15718 315
15719 315
15720 315
15721 315
15722 315
15723 315
15724 315
15725 315
15726 315
15727 315
15728 315
15729 315
15730 315
15731 315
15732 315
15733 315
15734 315
15735 315
15736 315
15737 315
15738 315
15739 315
15740 315
15741 315
15742 315
15743 315
15744 315
15745 315
15746 315
15747 315
15748 315
15749 315
15750 315
15751 316
15752 316
15753 316
15754 316
15755 316
15756 316
15757 316
15758 316
15759 316
15760 316
15761 316
15762 316
15763 316
15764 316
15765 316
15766 316
15767 316
15768 316
15769 316
15770 316
15771 316
15772 316
15773 316
15774 316
15775 316
15776 316
15777 316
15778 316
15779 316
15780 316
15781 316
15782 316
15783 316
15784 316
15785 316
15786 316
15787 316
15788 316
15789 316
15790 316
15791 316
15792 316
15793 316
15794 316
15795 316
15796 316
15797 316
15798 316
15799 316
15800 316
15801 317
15802 317
15803 317
15804 317
15805 317
15806 317
15807 317
15808 317
15809 317
15810 317
15811 317
15812 317
15813 317
15814 317
15815 317
15816 317
15817 317
15818 317
15819 317
15820 317
15821 317
15822 317
15823 317
15824 317
15825 317
15826 317
15827 317
15828 317
15829 317
15830 317
15831 317
15832 317
15833 317
15834 317
15835 317
15836 317
15837 317
15838 317
15839 317
15840 317
15841 317
15842 317
15843 317
15844 317
15845 317
15846 317
15847 317
15848 317
15849 317
15850 317
15851 318
15852 318
15853 318
15854 318
15855 318
15856 318
15857 318
15858 318
15859 318
15860 318
15861 318
15862 318
15863 318
15864 318
15865 318
15866 318
15867 318
15868 318
15869 318
15870 318
15871 318
15872 318
15873 318
15874 318
15875 318
15876 318
15877 318
15878 318
15879 318
15880 318
15881 318
15882 318
15883 318
15884 318
15885 318
15886 318
15887 318
15888 318
15889 318
15890 318
15891 318
15892 318
15893 318
15894 318
15895 318
15896 318
15897 318
15898 318
15899 318
15900 318
15901 319
15902 319
15903 319
15904 319
15905 319
15906 319
15907 319
15908 319
15909 319
15910 319
15911 319
15912 319
15913 319
15914 319
15915 319
15916 319
15917 319
15918 319
15919 319
15920 319
15921 319
15922 319
15923 319
15924 319
15925 319
15926 319
15927 319
15928 319
15929 319
15930 319
15931 319
15932 319
15933 319
15934 319
15935 319
15936 319
15937 319
15938 319
15939 319
15940 319
15941 319
15942 319
15943 319
15944 319
15945 319
15946 319
15947 319
15948 319
15949 319
15950 319
15951 320
15952 320
15953 320
15954 320
15955 320
15956 320
15957 320
15958 320
15959 320
15960 320
15961 320
15962 320
15963 320
15964 320
15965 320
15966 320
15967 320
15968 320
15969 320
15970 320
15971 320
15972 320
15973 320
15974 320
15975 320
15976 320
15977 320
15978 320
15979 320
15980 320
15981 320
15982 320
15983 320
15984 320
15985 320
15986 320
15987 320
15988 320
15989 320
15990 320
15991 320
15992 320
15993 320
15994 320
15995 320
15996 320
15997 320
15998 320
15999 320
16000 320
16001 321
16002 321
16003 321
16004 321
16005 321
16006 321
16007 321
16008 321
16009 321
16010 321
16011 321
16012 321
16013 321
16014 321
16015 321
16016 321
16017 321
16018 321
16019 321
16020 321
16021 321
16022 321
16023 321
16024 321
16025 321
16026 321
16027 321
16028 321
16029 321
16030 321
16031 321
16032 321
16033 321
16034 321
16035 321
16036 321
16037 321
16038 321
16039 321
16040 321
16041 321
16042 321
16043 321
16044 321
16045 321
16046 321
16047 321
16048 321
16049 321
16050 321
16051 322
16052 322
16053 322
16054 322
16055 322
16056 322
16057 322
16058 322
16059 322
16060 322
16061 322
16062 322
16063 322
16064 322
16065 322
16066 322
16067 322
16068 322
16069 322
16070 322
16071 322
16072 322
16073 322
16074 322
16075 322
16076 322
16077 322
16078 322
16079 322
16080 322
16081 322
16082 322
16083 322
16084 322
16085 322
16086 322
16087 322
16088 322
16089 322
16090 322
16091 322
16092 322
16093 322
16094 322
16095 322
16096 322
16097 322
16098 322
16099 322
16100 322
16101 323
16102 323
16103 323
16104 323
16105 323
16106 323
16107 323
16108 323
16109 323
16110 323
16111 323
16112 323
16113 323
16114 323
16115 323
16116 323
16117 323
16118 323
16119 323
16120 323
16121 323
16122 323
16123 323
16124 323
16125 323
16126 323
16127 323
16128 323
16129 323
16130 323
16131 323
16132 323
16133 323
16134 323
16135 323
16136 323
16137 323
16138 323
16139 323
16140 323
16141 323
16142 323
16143 323
16144 323
16145 323
16146 323
16147 323
16148 323
16149 323
16150 323
16151 324
16152 324
16153 324
16154 324
16155 324
16156 324
16157 324
16158 324
16159 324
16160 324
16161 324
16162 324
16163 324
16164 324
16165 324
16166 324
16167 324
16168 324
16169 324
16170 324
16171 324
16172 324
16173 324
16174 324
16175 324
16176 324
16177 324
16178 324
16179 324
16180 324
16181 324
16182 324
16183 324
16184 324
16185 324
16186 324
16187 324
16188 324
16189 324
16190 324
16191 324
16192 324
16193 324
16194 324
16195 324
16196 324
16197 324
16198 324
16199 324
16200 324
16201 325
16202 325
16203 325
16204 325
16205 325
16206 325
16207 325
16208 325
16209 325
16210 325
16211 325
16212 325
16213 325
16214 325
16215 325
16216 325
16217 325
16218 325
16219 325
16220 325
16221 325
16222 325
16223 325
16224 325
16225 325
16226 325
16227 325
16228 325
16229 325
16230 325
16231 325
16232 325
16233 325
16234 325
16235 325
16236 325
16237 325
16238 325
16239 325
16240 325
16241 325
16242 325
16243 325
16244 325
16245 325
16246 325
16247 325
16248 325
16249 325
16250 325
16251 326
16252 326
16253 326
16254 326
16255 326
16256 326
16257 326
16258 326
16259 326
16260 326
16261 326
16262 326
16263 326
16264 326
16265 326
16266 326
16267 326
16268 326
16269 326
16270 326
16271 326
16272 326
16273 326
16274 326
16275 326
16276 326
16277 326
16278 326
16279 326
16280 326
16281 326
16282 326
16283 326
16284 326
16285 326
16286 326
16287 326
16288 326
16289 326
16290 326
16291 326
16292 326
16293 326
16294 326
16295 326
16296 326
16297 326
16298 326
16299 326
16300 326
16301 327
16302 327
16303 327
16304 327
16305 327
16306 327
16307 327
16308 327
16309 327
16310 327
16311 327
16312 327
16313 327
16314 327
16315 327
16316 327
16317 327
16318 327
16319 327
16320 327
16321 327
16322 327
16323 327
16324 327
16325 327
16326 327
16327 327
16328 327
16329 327
16330 327
16331 327
16332 327
16333 327
16334 327
16335 327
16336 327
16337 327
16338 327
16339 327
16340 327
16341 327
16342 327
16343 327
16344 327
16345 327
16346 327
16347 327
16348 327
16349 327
16350 327
16351 328
16352 328
16353 328
16354 328
16355 328
16356 328
16357 328
16358 328
16359 328
16360 328
16361 328
16362 328
16363 328
16364 328
16365 328
16366 328
16367 328
16368 328
16369 328
16370 328
16371 328
16372 328
16373 328
16374 328
16375 328
16376 328
16377 328
16378 328
16379 328
16380 328
16381 328
16382 328
16383 328
16384 328
16385 328
16386 328
16387 328
16388 328
16389 328
16390 328
16391 328
16392 328
16393 328
16394 328
16395 328
16396 328
16397 328
16398 328
16399 328
16400 328
16401 329
16402 329
16403 329
16404 329
16405 329
16406 329
16407 329
16408 329
16409 329
16410 329
16411 329
16412 329
16413 329
16414 329
16415 329
16416 329
16417 329
16418 329
16419 329
16420 329
16421 329
16422 329
16423 329
16424 329
16425 329
16426 329
16427 329
16428 329
16429 329
16430 329
16431 329
16432 329
16433 329
16434 329
16435 329
16436 329
16437 329
16438 329
16439 329
16440 329
16441 329
16442 329
16443 329
16444 329
16445 329
16446 329
16447 329
16448 329
16449 329
16450 329
16451 330
16452 330
16453 330
16454 330
16455 330
16456 330
16457 330
16458 330
16459 330
16460 330
16461 330
16462 330
16463 330
16464 330
16465 330
16466 330
16467 330
16468 330
16469 330
16470 330
16471 330
16472 330
16473 330
16474 330
16475 330
16476 330
16477 330
16478 330
16479 330
16480 330
16481 330
16482 330
16483 330
16484 330
16485 330
16486 330
16487 330
16488 330
16489 330
16490 330
16491 330
16492 330
16493 330
16494 330
16495 330
16496 330
16497 330
16498 330
16499 330
16500 330
16501 331
16502 331
16503 331
16504 331
16505 331
16506 331
16507 331
16508 331
16509 331
16510 331
16511 331
16512 331
16513 331
16514 331
16515 331
16516 331
16517 331
16518 331
16519 331
16520 331
16521 331
16522 331
16523 331
16524 331
16525 331
16526 331
16527 331
16528 331
16529 331
16530 331
16531 331
16532 331
16533 331
16534 331
16535 331
16536 331
16537 331
16538 331
16539 331
16540 331
16541 331
16542 331
16543 331
16544 331
16545 331
16546 331
16547 331
16548 331
16549 331
16550 331
16551 332
16552 332
16553 332
16554 332
16555 332
16556 332
16557 332
16558 332
16559 332
16560 332
16561 332
16562 332
16563 332
16564 332
16565 332
16566 332
16567 332
16568 332
16569 332
16570 332
16571 332
16572 332
16573 332
16574 332
16575 332
16576 332
16577 332
16578 332
16579 332
16580 332
16581 332
16582 332
16583 332
16584 332
16585 332
16586 332
16587 332
16588 332
16589 332
16590 332
16591 332
16592 332
16593 332
16594 332
16595 332
16596 332
16597 332
16598 332
16599 332
16600 332
16601 333
16602 333
16603 333
16604 333
16605 333
16606 333
16607 333
16608 333
16609 333
16610 333
16611 333
16612 333
16613 333
16614 333
16615 333
16616 333
16617 333
16618 333
16619 333
16620 333
16621 333
16622 333
16623 333
16624 333
16625 333
16626 333
16627 333
16628 333
16629 333
16630 333
16631 333
16632 333
16633 333
16634 333
16635 333
16636 333
16637 333
16638 333
16639 333
16640 333
16641 333
16642 333
16643 333
16644 333
16645 333
16646 333
16647 333
16648 333
16649 333
16650 333
16651 334
16652 334
16653 334
16654 334
16655 334
16656 334
16657 334
16658 334
16659 334
16660 334
16661 334
16662 334
16663 334
16664 334
16665 334
16666 334
16667 334
16668 334
16669 334
16670 334
16671 334
16672 334
16673 334
16674 334
16675 334
16676 334
16677 334
16678 334
16679 334
16680 334
16681 334
16682 334
16683 334
16684 334
16685 334
16686 334
16687 334
16688 334
16689 334
16690 334
16691 334
16692 334
16693 334
16694 334
16695 334
16696 334
16697 334
16698 334
16699 334
16700 334
16701 335
16702 335
16703 335
16704 335
16705 335
16706 335
16707 335
16708 335
16709 335
16710 335
16711 335
16712 335
16713 335
16714 335
16715 335
16716 335
16717 335
16718 335
16719 335
16720 335
16721 335
16722 335
16723 335
16724 335
16725 335
16726 335
16727 335
16728 335
16729 335
16730 335
16731 335
16732 335
16733 335
16734 335
16735 335
16736 335
16737 335
16738 335
16739 335
16740 335
16741 335
16742 335
16743 335
16744 335
16745 335
16746 335
16747 335
16748 335
16749 335
16750 335
16751 336
16752 336
16753 336
16754 336
16755 336
16756 336
16757 336
16758 336
16759 336
16760 336
16761 336
16762 336
16763 336
16764 336
16765 336
16766 336
16767 336
16768 336
16769 336
16770 336
16771 336
16772 336
16773 336
16774 336
16775 336
16776 336
16777 336
16778 336
16779 336
16780 336
16781 336
16782 336
16783 336
16784 336
16785 336
16786 336
16787 336
16788 336
16789 336
16790 336
16791 336
16792 336
16793 336
16794 336
16795 336
16796 336
16797 336
16798 336
16799 336
16800 336
16801 337
16802 337
16803 337
16804 337
16805 337
16806 337
16807 337
16808 337
16809 337
16810 337
16811 337
16812 337
16813 337
16814 337
16815 337
16816 337
16817 337
16818 337
16819 337
16820 337
16821 337
16822 337
16823 337
16824 337
16825 337
16826 337
16827 337
16828 337
16829 337
16830 337
16831 337
16832 337
16833 337
16834 337
16835 337
16836 337
16837 337
16838 337
16839 337
16840 337
16841 337
16842 337
16843 337
16844 337
16845 337
16846 337
16847 337
16848 337
16849 337
16850 337
16851 338
16852 338
16853 338
16854 338
16855 338
16856 338
16857 338
16858 338
16859 338
16860 338
16861 338
16862 338
16863 338
16864 338
16865 338
16866 338
16867 338
16868 338
16869 338
16870 338
16871 338
16872 338
16873 338
16874 338
16875 338
16876 338
16877 338
16878 338
16879 338
16880 338
16881 338
16882 338
16883 338
16884 338
16885 338
16886 338
16887 338
16888 338
16889 338
16890 338
16891 338
16892 338
16893 338
16894 338
16895 338
16896 338
16897 338
16898 338
16899 338
16900 338
16901 339
16902 339
16903 339
16904 339
16905 339
16906 339
16907 339
16908 339
16909 339
16910 339
16911 339
16912 339
16913 339
16914 339
16915 339
16916 339
16917 339
16918 339
16919 339
16920 339
16921 339
16922 339
16923 339
16924 339
16925 339
16926 339
16927 339
16928 339
16929 339
16930 339
16931 339
16932 339
16933 339
16934 339
16935 339
16936 339
16937 339
16938 339
16939 339
16940 339
16941 339
16942 339
16943 339
16944 339
16945 339
16946 339
16947 339
16948 339
16949 339
16950 339
16951 340
16952 340
16953 340
16954 340
16955 340
16956 340
16957 340
16958 340
16959 340
16960 340
16961 340
16962 340
16963 340
16964 340
16965 340
16966 340
16967 340
16968 340
16969 340
16970 340
16971 340
16972 340
16973 340
16974 340
16975 340
16976 340
16977 340
16978 340
16979 340
16980 340
16981 340
16982 340
16983 340
16984 340
16985 340
16986 340
16987 340
16988 340
16989 340
16990 340
16991 340
16992 340
16993 340
16994 340
16995 340
16996 340
16997 340
16998 340
16999 340
17000 340
17001 341
17002 341
17003 341
17004 341
17005 341
17006 341
17007 341
17008 341
17009 341
17010 341
17011 341
17012 341
17013 341
17014 341
17015 341
17016 341
17017 341
17018 341
17019 341
17020 341
17021 341
17022 341
17023 341
17024 341
17025 341
17026 341
17027 341
17028 341
17029 341
17030 341
17031 341
17032 341
17033 341
17034 341
17035 341
17036 341
17037 341
17038 341
17039 341
17040 341
17041 341
17042 341
17043 341
17044 341
17045 341
17046 341
17047 341
17048 341
17049 341
17050 341
17051 342
17052 342
17053 342
17054 342
17055 342
17056 342
17057 342
17058 342
17059 342
17060 342
17061 342
17062 342
17063 342
17064 342
17065 342
17066 342
17067 342
17068 342
17069 342
17070 342
17071 342
17072 342
17073 342
17074 342
17075 342
17076 342
17077 342
17078 342
17079 342
17080 342
17081 342
17082 342
17083 342
17084 342
17085 342
17086 342
17087 342
17088 342
17089 342
17090 342
17091 342
17092 342
17093 342
17094 342
17095 342
17096 342
17097 342
17098 342
17099 342
17100 342
17101 343
17102 343
17103 343
17104 343
17105 343
17106 343
17107 343
17108 343
17109 343
17110 343
17111 343
17112 343
17113 343
17114 343
17115 343
17116 343
17117 343
17118 343
17119 343
17120 343
17121 343
17122 343
17123 343
17124 343
17125 343
17126 343
17127 343
17128 343
17129 343
17130 343
17131 343
17132 343
17133 343
17134 343
17135 343
17136 343
17137 343
17138 343
17139 343
17140 343
17141 343
17142 343
17143 343
17144 343
17145 343
17146 343
17147 343
17148 343
17149 343
17150 343
17151 344
17152 344
17153 344
17154 344
17155 344
17156 344
17157 344
17158 344
17159 344
17160 344
17161 344
17162 344
17163 344
17164 344
17165 344
17166 344
17167 344
17168 344
17169 344
17170 344
17171 344
17172 344
17173 344
17174 344
17175 344
17176 344
17177 344
17178 344
17179 344
17180 344
17181 344
17182 344
17183 344
17184 344
17185 344
17186 344
17187 344
17188 344
17189 344
17190 344
17191 344
17192 344
17193 344
17194 344
17195 344
17196 344
17197 344
17198 344
17199 344
17200 344
17201 345
17202 345
17203 345
17204 345
17205 345
17206 345
17207 345
17208 345
17209 345
17210 345
17211 345
17212 345
17213 345
17214 345
17215 345
17216 345
17217 345
17218 345
17219 345
17220 345
17221 345
17222 345
17223 345
17224 345
17225 345
17226 345
17227 345
17228 345
17229 345
17230 345
17231 345
17232 345
17233 345
17234 345
17235 345
17236 345
17237 345
17238 345
17239 345
17240 345
17241 345
17242 345
17243 345
17244 345
17245 345
17246 345
17247 345
17248 345
17249 345
17250 345
17251 346
17252 346
17253 346
17254 346
17255 346
17256 346
17257 346
17258 346
17259 346
17260 346
17261 346
17262 346
17263 346
17264 346
17265 346
17266 346
17267 346
17268 346
17269 346
17270 346
17271 346
17272 346
17273 346
17274 346
17275 346
17276 346
17277 346
17278 346
17279 346
17280 346
17281 346
17282 346
17283 346
17284 346
17285 346
17286 346
17287 346
17288 346
17289 346
17290 346
17291 346
17292 346
17293 346
17294 346
17295 346
17296 346
17297 346
17298 346
17299 346
17300 346
17301 347
17302 347
17303 347
17304 347
17305 347
17306 347
17307 347
17308 347
17309 347
17310 347
17311 347
17312 347
17313 347
17314 347
17315 347
17316 347
17317 347
17318 347
17319 347
17320 347
17321 347
17322 347
17323 347
17324 347
17325 347
17326 347
17327 347
17328 347
17329 347
17330 347
17331 347
17332 347
17333 347
17334 347
17335 347
17336 347
17337 347
17338 347
17339 347
17340 347
17341 347
17342 347
17343 347
17344 347
17345 347
17346 347
17347 347
17348 347
17349 347
17350 347
17351 348
17352 348
17353 348
17354 348
17355 348
17356 348
17357 348
17358 348
17359 348
17360 348
17361 348
17362 348
17363 348
17364 348
17365 348
17366 348
17367 348
17368 348
17369 348
17370 348
17371 348
17372 348
17373 348
17374 348
17375 348
17376 348
17377 348
17378 348
17379 348
17380 348
17381 348
17382 348
17383 348
17384 348
17385 348
17386 348
17387 348
17388 348
17389 348
17390 348
17391 348
17392 348
17393 348
17394 348
17395 348
17396 348
17397 348
17398 348
17399 348
17400 348
17401 349
17402 349
17403 349
17404 349
17405 349
17406 349
17407 349
17408 349
17409 349
17410 349
17411 349
17412 349
17413 349
17414 349
17415 349
17416 349
17417 349
17418 349
17419 349
17420 349
17421 349
17422 349
17423 349
17424 349
17425 349
17426 349
17427 349
17428 349
17429 349
17430 349
17431 349
17432 349
17433 349
17434 349
17435 349
17436 349
17437 349
17438 349
17439 349
17440 349
17441 349
17442 349
17443 349
17444 349
17445 349
17446 349
17447 349
17448 349
17449 349
17450 349
17451 350
17452 350
17453 350
17454 350
17455 350
17456 350
17457 350
17458 350
17459 350
17460 350
17461 350
17462 350
17463 350
17464 350
17465 350
17466 350
17467 350
17468 350
17469 350
17470 350
17471 350
17472 350
17473 350
17474 350
17475 350
17476 350
17477 350
17478 350
17479 350
17480 350
17481 350
17482 350
17483 350
17484 350
17485 350
17486 350
17487 350
17488 350
17489 350
17490 350
17491 350
17492 350
17493 350
17494 350
17495 350
17496 350
17497 350
17498 350
17499 350
17500 350
17501 351
17502 351
17503 351
17504 351
17505 351
17506 351
17507 351
17508 351
17509 351
17510 351
17511 351
17512 351
17513 351
17514 351
17515 351
17516 351
17517 351
17518 351
17519 351
17520 351
17521 351
17522 351
17523 351
17524 351
17525 351
17526 351
17527 351
17528 351
17529 351
17530 351
17531 351
17532 351
17533 351
17534 351
17535 351
17536 351
17537 351
17538 351
17539 351
17540 351
17541 351
17542 351
17543 351
17544 351
17545 351
17546 351
17547 351
17548 351
17549 351
17550 351
17551 352
17552 352
17553 352
17554 352
17555 352
17556 352
17557 352
17558 352
17559 352
17560 352
17561 352
17562 352
17563 352
17564 352
17565 352
17566 352
17567 352
17568 352
17569 352
17570 352
17571 352
17572 352
17573 352
17574 352
17575 352
17576 352
17577 352
17578 352
17579 352
17580 352
17581 352
17582 352
17583 352
17584 352
17585 352
17586 352
17587 352
17588 352
17589 352
17590 352
17591 352
17592 352
17593 352
17594 352
17595 352
17596 352
17597 352
17598 352
17599 352
17600 352
17601 353
17602 353
17603 353
17604 353
17605 353
17606 353
17607 353
17608 353
17609 353
17610 353
17611 353
17612 353
17613 353
17614 353
17615 353
17616 353
17617 353
17618 353
17619 353
17620 353
17621 353
17622 353
17623 353
17624 353
17625 353
17626 353
17627 353
17628 353
17629 353
17630 353
17631 353
17632 353
17633 353
17634 353
17635 353
17636 353
17637 353
17638 353
17639 353
17640 353
17641 353
17642 353
17643 353
17644 353
17645 353
17646 353
17647 353
17648 353
17649 353
17650 353
17651 354
17652 354
17653 354
17654 354
17655 354
17656 354
17657 354
17658 354
17659 354
17660 354
17661 354
17662 354
17663 354
17664 354
17665 354
17666 354
17667 354
17668 354
17669 354
17670 354
17671 354
17672 354
17673 354
17674 354
17675 354
17676 354
17677 354
17678 354
17679 354
17680 354
17681 354
17682 354
17683 354
17684 354
17685 354
17686 354
17687 354
17688 354
17689 354
17690 354
17691 354
17692 354
17693 354
17694 354
17695 354
17696 354
17697 354
17698 354
17699 354
17700 354
17701 355
17702 355
17703 355
17704 355
17705 355
17706 355
17707 355
17708 355
17709 355
17710 355
17711 355
17712 355
17713 355
17714 355
17715 355
17716 355
17717 355
17718 355
17719 355
17720 355
17721 355
17722 355
17723 355
17724 355
17725 355
17726 355
17727 355
17728 355
17729 355
17730 355
17731 355
17732 355
17733 355
17734 355
17735 355
17736 355
17737 355
17738 355
17739 355
17740 355
17741 355
17742 355
17743 355
17744 355
17745 355
17746 355
17747 355
17748 355
17749 355
17750 355
17751 356
17752 356
17753 356
17754 356
17755 356
17756 356
17757 356
17758 356
17759 356
17760 356
17761 356
17762 356
17763 356
17764 356
17765 356
17766 356
17767 356
17768 356
17769 356
17770 356
17771 356
17772 356
17773 356
17774 356
17775 356
17776 356
17777 356
17778 356
17779 356
17780 356
17781 356
17782 356
17783 356
17784 356
17785 356
17786 356
17787 356
17788 356
17789 356
17790 356
17791 356
17792 356
17793 356
17794 356
17795 356
17796 356
17797 356
17798 356
17799 356
17800 356
17801 357
17802 357
17803 357
17804 357
17805 357
17806 357
17807 357
17808 357
17809 357
17810 357
17811 357
17812 357
17813 357
17814 357
17815 357
17816 357
17817 357
17818 357
17819 357
17820 357
17821 357
17822 357
17823 357
17824 357
17825 357
17826 357
17827 357
17828 357
17829 357
17830 357
17831 357
17832 357
17833 357
17834 357
17835 357
17836 357
17837 357
17838 357
17839 357
17840 357
17841 357
17842 357
17843 357
17844 357
17845 357
17846 357
17847 357
17848 357
17849 357
17850 357
17851 358
17852 358
17853 358
17854 358
17855 358
17856 358
17857 358
17858 358
17859 358
17860 358
17861 358
17862 358
17863 358
17864 358
17865 358
17866 358
17867 358
17868 358
17869 358
17870 358
17871 358
17872 358
17873 358
17874 358
17875 358
17876 358
17877 358
17878 358
17879 358
17880 358
17881 358
17882 358
17883 358
17884 358
17885 358
17886 358
17887 358
17888 358
17889 358
17890 358
17891 358
17892 358
17893 358
17894 358
17895 358
17896 358
17897 358
17898 358
17899 358
17900 358
17901 359
17902 359
17903 359
17904 359
17905 359
17906 359
17907 359
17908 359
17909 359
17910 359
17911 359
17912 359
17913 359
17914 359
17915 359
17916 359
17917 359
17918 359
17919 359
17920 359
17921 359
17922 359
17923 359
17924 359
17925 359
17926 359
17927 359
17928 359
17929 359
17930 359
17931 359
17932 359
17933 359
17934 359
17935 359
17936 359
17937 359
17938 359
17939 359
17940 359
17941 359
17942 359
17943 359
17944 359
17945 359
17946 359
17947 359
17948 359
17949 359
17950 359
17951 360
17952 360
17953 360
17954 360
17955 360
17956 360
17957 360
17958 360
17959 360
17960 360
17961 360
17962 360
17963 360
17964 360
17965 360
17966 360
17967 360
17968 360
17969 360
17970 360
17971 360
17972 360
17973 360
17974 360
17975 360
17976 360
17977 360
17978 360
17979 360
17980 360
17981 360
17982 360
17983 360
17984 360
17985 360
17986 360
17987 360
17988 360
17989 360
17990 360
17991 360
17992 360
17993 360
17994 360
17995 360
17996 360
17997 360
17998 360
17999 360
18000 360
18001 361
18002 361
18003 361
18004 361
18005 361
18006 361
18007 361
18008 361
18009 361
18010 361
18011 361
18012 361
18013 361
18014 361
18015 361
18016 361
18017 361
18018 361
18019 361
18020 361
18021 361
18022 361
18023 361
18024 361
18025 361
18026 361
18027 361
18028 361
18029 361
18030 361
18031 361
18032 361
18033 361
18034 361
18035 361
18036 361
18037 361
18038 361
18039 361
18040 361
18041 361
18042 361
18043 361
18044 361
18045 361
18046 361
18047 361
18048 361
18049 361
18050 361
18051 362
18052 362
18053 362
18054 362
18055 362
18056 362
18057 362
18058 362
18059 362
18060 362
18061 362
18062 362
18063 362
18064 362
18065 362
18066 362
18067 362
18068 362
18069 362
18070 362
18071 362
18072 362
18073 362
18074 362
18075 362
18076 362
18077 362
18078 362
18079 362
18080 362
18081 362
18082 362
18083 362
18084 362
18085 362
18086 362
18087 362
18088 362
18089 362
18090 362
18091 362
18092 362
18093 362
18094 362
18095 362
18096 362
18097 362
18098 362
18099 362
18100 362
18101 363
18102 363
18103 363
18104 363
18105 363
18106 363
18107 363
18108 363
18109 363
18110 363
18111 363
18112 363
18113 363
18114 363
18115 363
18116 363
18117 363
18118 363
18119 363
18120 363
18121 363
18122 363
18123 363
18124 363
18125 363
18126 363
18127 363
18128 363
18129 363
18130 363
18131 363
18132 363
18133 363
18134 363
18135 363
18136 363
18137 363
18138 363
18139 363
18140 363
18141 363
18142 363
18143 363
18144 363
18145 363
18146 363
18147 363
18148 363
18149 363
18150 363
18151 364
18152 364
18153 364
18154 364
18155 364
18156 364
18157 364
18158 364
18159 364
18160 364
18161 364
18162 364
18163 364
18164 364
18165 364
18166 364
18167 364
18168 364
18169 364
18170 364
18171 364
18172 364
18173 364
18174 364
18175 364
18176 364
18177 364
18178 364
18179 364
18180 364
18181 364
18182 364
18183 364
18184 364
18185 364
18186 364
18187 364
18188 364
18189 364
18190 364
18191 364
18192 364
18193 364
18194 364
18195 364
18196 364
18197 364
18198 364
18199 364
18200 364
18201 365
18202 365
18203 365
18204 365
18205 365
18206 365
18207 365
18208 365
18209 365
18210 365
18211 365
18212 365
18213 365
18214 365
18215 365
18216 365
18217 365
18218 365
18219 365
18220 365
18221 365
18222 365
18223 365
18224 365
18225 365
18226 365
18227 365
18228 365
18229 365
18230 365
18231 365
18232 365
18233 365
18234 365
18235 365
18236 365
18237 365
18238 365
18239 365
18240 365
18241 365
18242 365
18243 365
18244 365
18245 365
18246 365
18247 365
18248 365
18249 365
18250 365
18251 366
18252 366
18253 366
18254 366
18255 366
18256 366
18257 366
18258 366
18259 366
18260 366
18261 366
18262 366
18263 366
18264 366
18265 366
18266 366
18267 366
18268 366
18269 366
18270 366
18271 366
18272 366
18273 366
18274 366
18275 366
18276 366
18277 366
18278 366
18279 366
18280 366
18281 366
18282 366
18283 366
18284 366
18285 366
18286 366
18287 366
18288 366
18289 366
18290 366
18291 366
18292 366
18293 366
18294 366
18295 366
18296 366
18297 366
18298 366
18299 366
18300 366
18301 367
18302 367
18303 367
18304 367
18305 367
18306 367
18307 367
18308 367
18309 367
18310 367
18311 367
18312 367
18313 367
18314 367
18315 367
18316 367
18317 367
18318 367
18319 367
18320 367
18321 367
18322 367
18323 367
18324 367
18325 367
18326 367
18327 367
18328 367
18329 367
18330 367
18331 367
18332 367
18333 367
18334 367
18335 367
18336 367
18337 367
18338 367
18339 367
18340 367
18341 367
18342 367
18343 367
18344 367
18345 367
18346 367
18347 367
18348 367
18349 367
18350 367
18351 368
18352 368
18353 368
18354 368
18355 368
18356 368
18357 368
18358 368
18359 368
18360 368
18361 368
18362 368
18363 368
18364 368
18365 368
18366 368
18367 368
18368 368
18369 368
18370 368
18371 368
18372 368
18373 368
18374 368
18375 368
18376 368
18377 368
18378 368
18379 368
18380 368
18381 368
18382 368
18383 368
18384 368
18385 368
18386 368
18387 368
18388 368
18389 368
18390 368
18391 368
18392 368
18393 368
18394 368
18395 368
18396 368
18397 368
18398 368
18399 368
18400 368
18401 369
18402 369
18403 369
18404 369
18405 369
18406 369
18407 369
18408 369
18409 369
18410 369
18411 369
18412 369
18413 369
18414 369
18415 369
18416 369
18417 369
18418 369
18419 369
18420 369
18421 369
18422 369
18423 369
18424 369
18425 369
18426 369
18427 369
18428 369
18429 369
18430 369
18431 369
18432 369
18433 369
18434 369
18435 369
18436 369
18437 369
18438 369
18439 369
18440 369
18441 369
18442 369
18443 369
18444 369
18445 369
18446 369
18447 369
18448 369
18449 369
18450 369
18451 370
18452 370
18453 370
18454 370
18455 370
18456 370
18457 370
18458 370
18459 370
18460 370
18461 370
18462 370
18463 370
18464 370
18465 370
18466 370
18467 370
18468 370
18469 370
18470 370
18471 370
18472 370
18473 370
18474 370
18475 370
18476 370
18477 370
18478 370
18479 370
18480 370
18481 370
18482 370
18483 370
18484 370
18485 370
18486 370
18487 370
18488 370
18489 370
18490 370
18491 370
18492 370
18493 370
18494 370
18495 370
18496 370
18497 370
18498 370
18499 370
18500 370
18501 371
18502 371
18503 371
18504 371
18505 371
18506 371
18507 371
18508 371
18509 371
18510 371
18511 371
18512 371
18513 371
18514 371
18515 371
18516 371
18517 371
18518 371
18519 371
18520 371
18521 371
18522 371
18523 371
18524 371
18525 371
18526 371
18527 371
18528 371
18529 371
18530 371
18531 371
18532 371
18533 371
18534 371
18535 371
18536 371
18537 371
18538 371
18539 371
18540 371
18541 371
18542 371
18543 371
18544 371
18545 371
18546 371
18547 371
18548 371
18549 371
18550 371
18551 372
18552 372
18553 372
18554 372
18555 372
18556 372
18557 372
18558 372
18559 372
18560 372
18561 372
18562 372
18563 372
18564 372
18565 372
18566 372
18567 372
18568 372
18569 372
18570 372
18571 372
18572 372
18573 372
18574 372
18575 372
18576 372
18577 372
18578 372
18579 372
18580 372
18581 372
18582 372
18583 372
18584 372
18585 372
18586 372
18587 372
18588 372
18589 372
18590 372
18591 372
18592 372
18593 372
18594 372
18595 372
18596 372
18597 372
18598 372
18599 372
18600 372
18601 373
18602 373
18603 373
18604 373
18605 373
18606 373
18607 373
18608 373
18609 373
18610 373
18611 373
18612 373
18613 373
18614 373
18615 373
18616 373
18617 373
18618 373
18619 373
18620 373
18621 373
18622 373
18623 373
18624 373
18625 373
18626 373
18627 373
18628 373
18629 373
18630 373
18631 373
18632 373
18633 373
18634 373
18635 373
18636 373
18637 373
18638 373
18639 373
18640 373
18641 373
18642 373
18643 373
18644 373
18645 373
18646 373
18647 373
18648 373
18649 373
18650 373
18651 374
18652 374
18653 374
18654 374
18655 374
18656 374
18657 374
18658 374
18659 374
18660 374
18661 374
18662 374
18663 374
18664 374
18665 374
18666 374
18667 374
18668 374
18669 374
18670 374
18671 374
18672 374
18673 374
18674 374
18675 374
18676 374
18677 374
18678 374
18679 374
18680 374
18681 374
18682 374
18683 374
18684 374
18685 374
18686 374
18687 374
18688 374
18689 374
18690 374
18691 374
18692 374
18693 374
18694 374
18695 374
18696 374
18697 374
18698 374
18699 374
18700 374
18701 375
18702 375
18703 375
18704 375
18705 375
18706 375
18707 375
18708 375
18709 375
18710 375
18711 375
18712 375
18713 375
18714 375
18715 375
18716 375
18717 375
18718 375
18719 375
18720 375
18721 375
18722 375
18723 375
18724 375
18725 375
18726 375
18727 375
18728 375
18729 375
18730 375
18731 375
18732 375
18733 375
18734 375
18735 375
18736 375
18737 375
18738 375
18739 375
18740 375
18741 375
18742 375
18743 375
18744 375
18745 375
18746 375
18747 375
18748 375
18749 375
18750 375
18751 376
18752 376
18753 376
18754 376
18755 376
18756 376
18757 376
18758 376
18759 376
18760 376
18761 376
18762 376
18763 376
18764 376
18765 376
18766 376
18767 376
18768 376
18769 376
18770 376
18771 376
18772 376
18773 376
18774 376
18775 376
18776 376
18777 376
18778 376
18779 376
18780 376
18781 376
18782 376
18783 376
18784 376
18785 376
18786 376
18787 376
18788 376
18789 376
18790 376
18791 376
18792 376
18793 376
18794 376
18795 376
18796 376
18797 376
18798 376
18799 376
18800 376
18801 377
18802 377
18803 377
18804 377
18805 377
18806 377
18807 377
18808 377
18809 377
18810 377
18811 377
18812 377
18813 377
18814 377
18815 377
18816 377
18817 377
18818 377
18819 377
18820 377
18821 377
18822 377
18823 377
18824 377
18825 377
18826 377
18827 377
18828 377
18829 377
18830 377
18831 377
18832 377
18833 377
18834 377
18835 377
18836 377
18837 377
18838 377
18839 377
18840 377
18841 377
18842 377
18843 377
18844 377
18845 377
18846 377
18847 377
18848 377
18849 377
18850 377
18851 378
18852 378
18853 378
18854 378
18855 378
18856 378
18857 378
18858 378
18859 378
18860 378
18861 378
18862 378
18863 378
18864 378
18865 378
18866 378
18867 378
18868 378
18869 378
18870 378
18871 378
18872 378
18873 378
18874 378
18875 378
18876 378
18877 378
18878 378
18879 378
18880 378
18881 378
18882 378
18883 378
18884 378
18885 378
18886 378
18887 378
18888 378
18889 378
18890 378
18891 378
18892 378
18893 378
18894 378
18895 378
18896 378
18897 378
18898 378
18899 378
18900 378
18901 379
18902 379
18903 379
18904 379
18905 379
18906 379
18907 379
18908 379
18909 379
18910 379
18911 379
18912 379
18913 379
18914 379
18915 379
18916 379
18917 379
18918 379
18919 379
18920 379
18921 379
18922 379
18923 379
18924 379
18925 379
18926 379
18927 379
18928 379
18929 379
18930 379
18931 379
18932 379
18933 379
18934 379
18935 379
18936 379
18937 379
18938 379
18939 379
18940 379
18941 379
18942 379
18943 379
18944 379
18945 379
18946 379
18947 379
18948 379
18949 379
18950 379
18951 380
18952 380
18953 380
18954 380
18955 380
18956 380
18957 380
18958 380
18959 380
18960 380
18961 380
18962 380
18963 380
18964 380
18965 380
18966 380
18967 380
18968 380
18969 380
18970 380
18971 380
18972 380
18973 380
18974 380
18975 380
18976 380
18977 380
18978 380
18979 380
18980 380
18981 380
18982 380
18983 380
18984 380
18985 380
18986 380
18987 380
18988 380
18989 380
18990 380
18991 380
18992 380
18993 380
18994 380
18995 380
18996 380
18997 380
18998 380
18999 380
19000 380
19001 381
19002 381
19003 381
19004 381
19005 381
19006 381
19007 381
19008 381
19009 381
19010 381
19011 381
19012 381
19013 381
19014 381
19015 381
19016 381
19017 381
19018 381
19019 381
19020 381
19021 381
19022 381
19023 381
19024 381
19025 381
19026 381
19027 381
19028 381
19029 381
19030 381
19031 381
19032 381
19033 381
19034 381
19035 381
19036 381
19037 381
19038 381
19039 381
19040 381
19041 381
19042 381
19043 381
19044 381
19045 381
19046 381
19047 381
19048 381
19049 381
19050 381
19051 382
19052 382
19053 382
19054 382
19055 382
19056 382
19057 382
19058 382
19059 382
19060 382
19061 382
19062 382
19063 382
19064 382
19065 382
19066 382
19067 382
19068 382
19069 382
19070 382
19071 382
19072 382
19073 382
19074 382
19075 382
19076 382
19077 382
19078 382
19079 382
19080 382
19081 382
19082 382
19083 382
19084 382
19085 382
19086 382
19087 382
19088 382
19089 382
19090 382
19091 382
19092 382
19093 382
19094 382
19095 382
19096 382
19097 382
19098 382
19099 382
19100 382
19101 383
19102 383
19103 383
19104 383
19105 383
19106 383
19107 383
19108 383
19109 383
19110 383
19111 383
19112 383
19113 383
19114 383
19115 383
19116 383
19117 383
19118 383
19119 383
19120 383
19121 383
19122 383
19123 383
19124 383
19125 383
19126 383
19127 383
19128 383
19129 383
19130 383
19131 383
19132 383
19133 383
19134 383
19135 383
19136 383
19137 383
19138 383
19139 383
19140 383
19141 383
19142 383
19143 383
19144 383
19145 383
19146 383
19147 383
19148 383
19149 383
19150 383
19151 384
19152 384
19153 384
19154 384
19155 384
19156 384
19157 384
19158 384
19159 384
19160 384
19161 384
19162 384
19163 384
19164 384
19165 384
19166 384
19167 384
19168 384
19169 384
19170 384
19171 384
19172 384
19173 384
19174 384
19175 384
19176 384
19177 384
19178 384
19179 384
19180 384
19181 384
19182 384
19183 384
19184 384
19185 384
19186 384
19187 384
19188 384
19189 384
19190 384
19191 384
19192 384
19193 384
19194 384
19195 384
19196 384
19197 384
19198 384
19199 384
19200 384
19201 385
19202 385
19203 385
19204 385
19205 385
19206 385
19207 385
19208 385
19209 385
19210 385
19211 385
19212 385
19213 385
19214 385
19215 385
19216 385
19217 385
19218 385
19219 385
19220 385
19221 385
19222 385
19223 385
19224 385
19225 385
19226 385
19227 385
19228 385
19229 385
19230 385
19231 385
19232 385
19233 385
19234 385
19235 385
19236 385
19237 385
19238 385
19239 385
19240 385
19241 385
19242 385
19243 385
19244 385
19245 385
19246 385
19247 385
19248 385
19249 385
19250 385
19251 386
19252 386
19253 386
19254 386
19255 386
19256 386
19257 386
19258 386
19259 386
19260 386
19261 386
19262 386
19263 386
19264 386
19265 386
19266 386
19267 386
19268 386
19269 386
19270 386
19271 386
19272 386
19273 386
19274 386
19275 386
19276 386
19277 386
19278 386
19279 386
19280 386
19281 386
19282 386
19283 386
19284 386
19285 386
19286 386
19287 386
19288 386
19289 386
19290 386
19291 386
19292 386
19293 386
19294 386
19295 386
19296 386
19297 386
19298 386
19299 386
19300 386
19301 387
19302 387
19303 387
19304 387
19305 387
19306 387
19307 387
19308 387
19309 387
19310 387
19311 387
19312 387
19313 387
19314 387
19315 387
19316 387
19317 387
19318 387
19319 387
19320 387
19321 387
19322 387
19323 387
19324 387
19325 387
19326 387
19327 387
19328 387
19329 387
19330 387
19331 387
19332 387
19333 387
19334 387
19335 387
19336 387
19337 387
19338 387
19339 387
19340 387
19341 387
19342 387
19343 387
19344 387
19345 387
19346 387
19347 387
19348 387
19349 387
19350 387
19351 388
19352 388
19353 388
19354 388
19355 388
19356 388
19357 388
19358 388
19359 388
19360 388
19361 388
19362 388
19363 388
19364 388
19365 388
19366 388
19367 388
19368 388
19369 388
19370 388
19371 388
19372 388
19373 388
19374 388
19375 388
19376 388
19377 388
19378 388
19379 388
19380 388
19381 388
19382 388
19383 388
19384 388
19385 388
19386 388
19387 388
19388 388
19389 388
19390 388
19391 388
19392 388
19393 388
19394 388
19395 388
19396 388
19397 388
19398 388
19399 388
19400 388
19401 389
19402 389
19403 389
19404 389
19405 389
19406 389
19407 389
19408 389
19409 389
19410 389
19411 389
19412 389
19413 389
19414 389
19415 389
19416 389
19417 389
19418 389
19419 389
19420 389
19421 389
19422 389
19423 389
19424 389
19425 389
19426 389
19427 389
19428 389
19429 389
19430 389
19431 389
19432 389
19433 389
19434 389
19435 389
19436 389
19437 389
19438 389
19439 389
19440 389
19441 389
19442 389
19443 389
19444 389
19445 389
19446 389
19447 389
19448 389
19449 389
19450 389
19451 390
19452 390
19453 390
19454 390
19455 390
19456 390
19457 390
19458 390
19459 390
19460 390
19461 390
19462 390
19463 390
19464 390
19465 390
19466 390
19467 390
19468 390
19469 390
19470 390
19471 390
19472 390
19473 390
19474 390
19475 390
19476 390
19477 390
19478 390
19479 390
19480 390
19481 390
19482 390
19483 390
19484 390
19485 390
19486 390
19487 390
19488 390
19489 390
19490 390
19491 390
19492 390
19493 390
19494 390
19495 390
19496 390
19497 390
19498 390
19499 390
19500 390
19501 391
19502 391
19503 391
19504 391
19505 391
19506 391
19507 391
19508 391
19509 391
19510 391
19511 391
19512 391
19513 391
19514 391
19515 391
19516 391
19517 391
19518 391
19519 391
19520 391
19521 391
19522 391
19523 391
19524 391
19525 391
19526 391
19527 391
19528 391
19529 391
19530 391
19531 391
19532 391
19533 391
19534 391
19535 391
19536 391
19537 391
19538 391
19539 391
19540 391
19541 391
19542 391
19543 391
19544 391
19545 391
19546 391
19547 391
19548 391
19549 391
19550 391
19551 392
19552 392
19553 392
19554 392
19555 392
19556 392
19557 392
19558 392
19559 392
19560 392
19561 392
19562 392
19563 392
19564 392
19565 392
19566 392
19567 392
19568 392
19569 392
19570 392
19571 392
19572 392
19573 392
19574 392
19575 392
19576 392
19577 392
19578 392
19579 392
19580 392
19581 392
19582 392
19583 392
19584 392
19585 392
19586 392
19587 392
19588 392
19589 392
19590 392
19591 392
19592 392
19593 392
19594 392
19595 392
19596 392
19597 392
19598 392
19599 392
19600 392
19601 393
19602 393
19603 393
19604 393
19605 393
19606 393
19607 393
19608 393
19609 393
19610 393
19611 393
19612 393
19613 393
19614 393
19615 393
19616 393
19617 393
19618 393
19619 393
19620 393
19621 393
19622 393
19623 393
19624 393
19625 393
19626 393
19627 393
19628 393
19629 393
19630 393
19631 393
19632 393
19633 393
19634 393
19635 393
19636 393
19637 393
19638 393
19639 393
19640 393
19641 393
19642 393
19643 393
19644 393
19645 393
19646 393
19647 393
19648 393
19649 393
19650 393
19651 394
19652 394
19653 394
19654 394
19655 394
19656 394
19657 394
19658 394
19659 394
19660 394
19661 394
19662 394
19663 394
19664 394
19665 394
19666 394
19667 394
19668 394
19669 394
19670 394
19671 394
19672 394
19673 394
19674 394
19675 394
19676 394
19677 394
19678 394
19679 394
19680 394
19681 394
19682 394
19683 394
19684 394
19685 394
19686 394
19687 394
19688 394
19689 394
19690 394
19691 394
19692 394
19693 394
19694 394
19695 394
19696 394
19697 394
19698 394
19699 394
19700 394
19701 395
19702 395
19703 395
19704 395
19705 395
19706 395
19707 395
19708 395
19709 395
19710 395
19711 395
19712 395
19713 395
19714 395
19715 395
19716 395
19717 395
19718 395
19719 395
19720 395
19721 395
19722 395
19723 395
19724 395
19725 395
19726 395
19727 395
19728 395
19729 395
19730 395
19731 395
19732 395
19733 395
19734 395
19735 395
19736 395
19737 395
19738 395
19739 395
19740 395
19741 395
19742 395
19743 395
19744 395
19745 395
19746 395
19747 395
19748 395
19749 395
19750 395
19751 396
19752 396
19753 396
19754 396
19755 396
19756 396
19757 396
19758 396
19759 396
19760 396
19761 396
19762 396
19763 396
19764 396
19765 396
19766 396
19767 396
19768 396
19769 396
19770 396
19771 396
19772 396
19773 396
19774 396
19775 396
19776 396
19777 396
19778 396
19779 396
19780 396
19781 396
19782 396
19783 396
19784 396
19785 396
19786 396
19787 396
19788 396
19789 396
19790 396
19791 396
19792 396
19793 396
19794 396
19795 396
19796 396
19797 396
19798 396
19799 396
19800 396
19801 397
19802 397
19803 397
19804 397
19805 397
19806 397
19807 397
19808 397
19809 397
19810 397
19811 397
19812 397
19813 397
19814 397
19815 397
19816 397
19817 397
19818 397
19819 397
19820 397
19821 397
19822 397
19823 397
19824 397
19825 397
19826 397
19827 397
19828 397
19829 397
19830 397
19831 397
19832 397
19833 397
19834 397
19835 397
19836 397
19837 397
19838 397
19839 397
19840 397
19841 397
19842 397
19843 397
19844 397
19845 397
19846 397
19847 397
19848 397
19849 397
19850 397
19851 398
19852 398
19853 398
19854 398
19855 398
19856 398
19857 398
19858 398
19859 398
19860 398
19861 398
19862 398
19863 398
19864 398
19865 398
19866 398
19867 398
19868 398
19869 398
19870 398
19871 398
19872 398
19873 398
19874 398
19875 398
19876 398
19877 398
19878 398
19879 398
19880 398
19881 398
19882 398
19883 398
19884 398
19885 398
19886 398
19887 398
19888 398
19889 398
19890 398
19891 398
19892 398
19893 398
19894 398
19895 398
19896 398
19897 398
19898 398
19899 398
19900 398
19901 399
19902 399
19903 399
19904 399
19905 399
19906 399
19907 399
19908 399
19909 399
19910 399
19911 399
19912 399
19913 399
19914 399
19915 399
19916 399
19917 399
19918 399
19919 399
19920 399
19921 399
19922 399
19923 399
19924 399
19925 399
19926 399
19927 399
19928 399
19929 399
19930 399
19931 399
19932 399
19933 399
19934 399
19935 399
19936 399
19937 399
19938 399
19939 399
19940 399
19941 399
19942 399
19943 399
19944 399
19945 399
19946 399
19947 399
19948 399
19949 399
19950 399
19951 400
19952 400
19953 400
19954 400
19955 400
19956 400
19957 400
19958 400
19959 400
19960 400
19961 400
19962 400
19963 400
19964 400
19965 400
19966 400
19967 400
19968 400
19969 400
19970 400
19971 400
19972 400
19973 400
19974 400
19975 400
19976 400
19977 400
19978 400
19979 400
19980 400
19981 400
19982 400
19983 400
19984 400
19985 400
19986 400
19987 400
19988 400
19989 400
19990 400
19991 400
19992 400
19993 400
19994 400
19995 400
19996 400
19997 400
19998 400
19999 400
20000 400
20001 401
20002 401
20003 401
20004 401
20005 401
20006 401
20007 401
20008 401
20009 401
20010 401
20011 401
20012 401
20013 401
20014 401
20015 401
20016 401
20017 401
20018 401
20019 401
20020 401
20021 401
20022 401
20023 401
20024 401
20025 401
20026 401
20027 401
20028 401
20029 401
20030 401
20031 401
20032 401
20033 401
20034 401
20035 401
20036 401
20037 401
20038 401
20039 401
20040 401
20041 401
20042 401
20043 401
20044 401
20045 401
20046 401
20047 401
20048 401
20049 401
20050 401
20051 402
20052 402
20053 402
20054 402
20055 402
20056 402
20057 402
20058 402
20059 402
20060 402
20061 402
20062 402
20063 402
20064 402
20065 402
20066 402
20067 402
20068 402
20069 402
20070 402
20071 402
20072 402
20073 402
20074 402
20075 402
20076 402
20077 402
20078 402
20079 402
20080 402
20081 402
20082 402
20083 402
20084 402
20085 402
20086 402
20087 402
20088 402
20089 402
20090 402
20091 402
20092 402
20093 402
20094 402
20095 402
20096 402
20097 402
20098 402
20099 402
20100 402
20101 403
20102 403
20103 403
20104 403
20105 403
20106 403
20107 403
20108 403
20109 403
20110 403
20111 403
20112 403
20113 403
20114 403
20115 403
20116 403
20117 403
20118 403
20119 403
20120 403
20121 403
20122 403
20123 403
20124 403
20125 403
20126 403
20127 403
20128 403
20129 403
20130 403
20131 403
20132 403
20133 403
20134 403
20135 403
20136 403
20137 403
20138 403
20139 403
20140 403
20141 403
20142 403
20143 403
20144 403
20145 403
20146 403
20147 403
20148 403
20149 403
20150 403
20151 404
20152 404
20153 404
20154 404
20155 404
20156 404
20157 404
20158 404
20159 404
20160 404
20161 404
20162 404
20163 404
20164 404
20165 404
20166 404
20167 404
20168 404
20169 404
20170 404
20171 404
20172 404
20173 404
20174 404
20175 404
20176 404
20177 404
20178 404
20179 404
20180 404
20181 404
20182 404
20183 404
20184 404
20185 404
20186 404
20187 404
20188 404
20189 404
20190 404
20191 404
20192 404
20193 404
20194 404
20195 404
20196 404
20197 404
20198 404
20199 404
20200 404
20201 405
20202 405
20203 405
20204 405
20205 405
20206 405
20207 405
20208 405
20209 405
20210 405
20211 405
20212 405
20213 405
20214 405
20215 405
20216 405
20217 405
20218 405
20219 405
20220 405
20221 405
20222 405
20223 405
20224 405
20225 405
20226 405
20227 405
20228 405
20229 405
20230 405
20231 405
20232 405
20233 405
20234 405
20235 405
20236 405
20237 405
20238 405
20239 405
20240 405
20241 405
20242 405
20243 405
20244 405
20245 405
20246 405
20247 405
20248 405
20249 405
20250 405
20251 406
20252 406
20253 406
20254 406
20255 406
20256 406
20257 406
20258 406
20259 406
20260 406
20261 406
20262 406
20263 406
20264 406
20265 406
20266 406
20267 406
20268 406
20269 406
20270 406
20271 406
20272 406
20273 406
20274 406
20275 406
20276 406
20277 406
20278 406
20279 406
20280 406
20281 406
20282 406
20283 406
20284 406
20285 406
20286 406
20287 406
20288 406
20289 406
20290 406
20291 406
20292 406
20293 406
20294 406
20295 406
20296 406
20297 406
20298 406
20299 406
20300 406
20301 407
20302 407
20303 407
20304 407
20305 407
20306 407
20307 407
20308 407
20309 407
20310 407
20311 407
20312 407
20313 407
20314 407
20315 407
20316 407
20317 407
20318 407
20319 407
20320 407
20321 407
20322 407
20323 407
20324 407
20325 407
20326 407
20327 407
20328 407
20329 407
20330 407
20331 407
20332 407
20333 407
20334 407
20335 407
20336 407
20337 407
20338 407
20339 407
20340 407
20341 407
20342 407
20343 407
20344 407
20345 407
20346 407
20347 407
20348 407
20349 407
20350 407
20351 408
20352 408
20353 408
20354 408
20355 408
20356 408
20357 408
20358 408
20359 408
20360 408
20361 408
20362 408
20363 408
20364 408
20365 408
20366 408
20367 408
20368 408
20369 408
20370 408
20371 408
20372 408
20373 408
20374 408
20375 408
20376 408
20377 408
20378 408
20379 408
20380 408
20381 408
20382 408
20383 408
20384 408
20385 408
20386 408
20387 408
20388 408
20389 408
20390 408
20391 408
20392 408
20393 408
20394 408
20395 408
20396 408
20397 408
20398 408
20399 408
20400 408
20401 409
20402 409
20403 409
20404 409
20405 409
20406 409
20407 409
20408 409
20409 409
20410 409
20411 409
20412 409
20413 409
20414 409
20415 409
20416 409
20417 409
20418 409
20419 409
20420 409
20421 409
20422 409
20423 409
20424 409
20425 409
20426 409
20427 409
20428 409
20429 409
20430 409
20431 409
20432 409
20433 409
20434 409
20435 409
20436 409
20437 409
20438 409
20439 409
20440 409
20441 409
20442 409
20443 409
20444 409
20445 409
20446 409
20447 409
20448 409
20449 409
20450 409
20451 410
20452 410
20453 410
20454 410
20455 410
20456 410
20457 410
20458 410
20459 410
20460 410
20461 410
20462 410
20463 410
20464 410
20465 410
20466 410
20467 410
20468 410
20469 410
20470 410
20471 410
20472 410
20473 410
20474 410
20475 410
20476 410
20477 410
20478 410
20479 410
20480 410
20481 410
20482 410
20483 410
20484 410
20485 410
20486 410
20487 410
20488 410
20489 410
20490 410
20491 410
20492 410
20493 410
20494 410
20495 410
20496 410
20497 410
20498 410
20499 410
20500 410
20501 411
20502 411
20503 411
20504 411
20505 411
20506 411
20507 411
20508 411
20509 411
20510 411
20511 411
20512 411
20513 411
20514 411
20515 411
20516 411
20517 411
20518 411
20519 411
20520 411
20521 411
20522 411
20523 411
20524 411
20525 411
20526 411
20527 411
20528 411
20529 411
20530 411
20531 411
20532 411
20533 411
20534 411
20535 411
20536 411
20537 411
20538 411
20539 411
20540 411
20541 411
20542 411
20543 411
20544 411
20545 411
20546 411
20547 411
20548 411
20549 411
20550 411
20551 412
20552 412
20553 412
20554 412
20555 412
20556 412
20557 412
20558 412
20559 412
20560 412
20561 412
20562 412
20563 412
20564 412
20565 412
20566 412
20567 412
20568 412
20569 412
20570 412
20571 412
20572 412
20573 412
20574 412
20575 412
20576 412
20577 412
20578 412
20579 412
20580 412
20581 412
20582 412
20583 412
20584 412
20585 412
20586 412
20587 412
20588 412
20589 412
20590 412
20591 412
20592 412
20593 412
20594 412
20595 412
20596 412
20597 412
20598 412
20599 412
20600 412
20601 413
20602 413
20603 413
20604 413
20605 413
20606 413
20607 413
20608 413
20609 413
20610 413
20611 413
20612 413
20613 413
20614 413
20615 413
20616 413
20617 413
20618 413
20619 413
20620 413
20621 413
20622 413
20623 413
20624 413
20625 413
20626 413
20627 413
20628 413
20629 413
20630 413
20631 413
20632 413
20633 413
20634 413
20635 413
20636 413
20637 413
20638 413
20639 413
20640 413
20641 413
20642 413
20643 413
20644 413
20645 413
20646 413
20647 413
20648 413
20649 413
20650 413
20651 414
20652 414
20653 414
20654 414
20655 414
20656 414
20657 414
20658 414
20659 414
20660 414
20661 414
20662 414
20663 414
20664 414
20665 414
20666 414
20667 414
20668 414
20669 414
20670 414
20671 414
20672 414
20673 414
20674 414
20675 414
20676 414
20677 414
20678 414
20679 414
20680 414
20681 414
20682 414
20683 414
20684 414
20685 414
20686 414
20687 414
20688 414
20689 414
20690 414
20691 414
20692 414
20693 414
20694 414
20695 414
20696 414
20697 414
20698 414
20699 414
20700 414
20701 415
20702 415
20703 415
20704 415
20705 415
20706 415
20707 415
20708 415
20709 415
20710 415
20711 415
20712 415
20713 415
20714 415
20715 415
20716 415
20717 415
20718 415
20719 415
20720 415
20721 415
20722 415
20723 415
20724 415
20725 415
20726 415
20727 415
20728 415
20729 415
20730 415
20731 415
20732 415
20733 415
20734 415
20735 415
20736 415
20737 415
20738 415
20739 415
20740 415
20741 415
20742 415
20743 415
20744 415
20745 415
20746 415
20747 415
20748 415
20749 415
20750 415
20751 416
20752 416
20753 416
20754 416
20755 416
20756 416
20757 416
20758 416
20759 416
20760 416
20761 416
20762 416
20763 416
20764 416
20765 416
20766 416
20767 416
20768 416
20769 416
20770 416
20771 416
20772 416
20773 416
20774 416
20775 416
20776 416
20777 416
20778 416
20779 416
20780 416
20781 416
20782 416
20783 416
20784 416
20785 416
20786 416
20787 416
20788 416
20789 416
20790 416
20791 416
20792 416
20793 416
20794 416
20795 416
20796 416
20797 416
20798 416
20799 416
20800 416
20801 417
20802 417
20803 417
20804 417
20805 417
20806 417
20807 417
20808 417
20809 417
20810 417
20811 417
20812 417
20813 417
20814 417
20815 417
20816 417
20817 417
20818 417
20819 417
20820 417
20821 417
20822 417
20823 417
20824 417
20825 417
20826 417
20827 417
20828 417
20829 417
20830 417
20831 417
20832 417
20833 417
20834 417
20835 417
20836 417
20837 417
20838 417
20839 417
20840 417
20841 417
20842 417
20843 417
20844 417
20845 417
20846 417
20847 417
20848 417
20849 417
20850 417
20851 418
20852 418
20853 418
20854 418
20855 418
20856 418
20857 418
20858 418
20859 418
20860 418
20861 418
20862 418
20863 418
20864 418
20865 418
20866 418
20867 418
20868 418
20869 418
20870 418
20871 418
20872 418
20873 418
20874 418
20875 418
20876 418
20877 418
20878 418
20879 418
20880 418
20881 418
20882 418
20883 418
20884 418
20885 418
20886 418
20887 418
20888 418
20889 418
20890 418
20891 418
20892 418
20893 418
20894 418
20895 418
20896 418
20897 418
20898 418
20899 418
20900 418
20901 419
20902 419
20903 419
20904 419
20905 419
20906 419
20907 419
20908 419
20909 419
20910 419
20911 419
20912 419
20913 419
20914 419
20915 419
20916 419
20917 419
20918 419
20919 419
20920 419
20921 419
20922 419
20923 419
20924 419
20925 419
20926 419
20927 419
20928 419
20929 419
20930 419
20931 419
20932 419
20933 419
20934 419
20935 419
20936 419
20937 419
20938 419
20939 419
20940 419
20941 419
20942 419
20943 419
20944 419
20945 419
20946 419
20947 419
20948 419
20949 419
20950 419
20951 420
20952 420
20953 420
20954 420
20955 420
20956 420
20957 420
20958 420
20959 420
20960 420
20961 420
20962 420
20963 420
20964 420
20965 420
20966 420
20967 420
20968 420
20969 420
20970 420
20971 420
20972 420
20973 420
20974 420
20975 420
20976 420
20977 420
20978 420
20979 420
20980 420
20981 420
20982 420
20983 420
20984 420
20985 420
20986 420
20987 420
20988 420
20989 420
20990 420
20991 420
20992 420
20993 420
20994 420
20995 420
20996 420
20997 420
20998 420
20999 420
21000 420
21001 421
21002 421
21003 421
21004 421
21005 421
21006 421
21007 421
21008 421
21009 421
21010 421
21011 421
21012 421
21013 421
21014 421
21015 421
21016 421
21017 421
21018 421
21019 421
21020 421
21021 421
21022 421
21023 421
21024 421
21025 421
21026 421
21027 421
21028 421
21029 421
21030 421
21031 421
21032 421
21033 421
21034 421
21035 421
21036 421
21037 421
21038 421
21039 421
21040 421
21041 421
21042 421
21043 421
21044 421
21045 421
21046 421
21047 421
21048 421
21049 421
21050 421
21051 422
21052 422
21053 422
21054 422
21055 422
21056 422
21057 422
21058 422
21059 422
21060 422
21061 422
21062 422
21063 422
21064 422
21065 422
21066 422
21067 422
21068 422
21069 422
21070 422
21071 422
21072 422
21073 422
21074 422
21075 422
21076 422
21077 422
21078 422
21079 422
21080 422
21081 422
21082 422
21083 422
21084 422
21085 422
21086 422
21087 422
21088 422
21089 422
21090 422
21091 422
21092 422
21093 422
21094 422
21095 422
21096 422
21097 422
21098 422
21099 422
21100 422
21101 423
21102 423
21103 423
21104 423
21105 423
21106 423
21107 423
21108 423
21109 423
21110 423
21111 423
21112 423
21113 423
21114 423
21115 423
21116 423
21117 423
21118 423
21119 423
21120 423
21121 423
21122 423
21123 423
21124 423
21125 423
21126 423
21127 423
21128 423
21129 423
21130 423
21131 423
21132 423
21133 423
21134 423
21135 423
21136 423
21137 423
21138 423
21139 423
21140 423
21141 423
21142 423
21143 423
21144 423
21145 423
21146 423
21147 423
21148 423
21149 423
21150 423
21151 424
21152 424
21153 424
21154 424
21155 424
21156 424
21157 424
21158 424
21159 424
21160 424
21161 424
21162 424
21163 424
21164 424
21165 424
21166 424
21167 424
21168 424
21169 424
21170 424
21171 424
21172 424
21173 424
21174 424
21175 424
21176 424
21177 424
21178 424
21179 424
21180 424
21181 424
21182 424
21183 424
21184 424
21185 424
21186 424
21187 424
21188 424
21189 424
21190 424
21191 424
21192 424
21193 424
21194 424
21195 424
21196 424
21197 424
21198 424
21199 424
21200 424
21201 425
21202 425
21203 425
21204 425
21205 425
21206 425
21207 425
21208 425
21209 425
21210 425
21211 425
21212 425
21213 425
21214 425
21215 425
21216 425
21217 425
21218 425
21219 425
21220 425
21221 425
21222 425
21223 425
21224 425
21225 425
21226 425
21227 425
21228 425
21229 425
21230 425
21231 425
21232 425
21233 425
21234 425
21235 425
21236 425
21237 425
21238 425
21239 425
21240 425
21241 425
21242 425
21243 425
21244 425
21245 425
21246 425
21247 425
21248 425
21249 425
21250 425
21251 426
21252 426
21253 426
21254 426
21255 426
21256 426
21257 426
21258 426
21259 426
21260 426
21261 426
21262 426
21263 426
21264 426
21265 426
21266 426
21267 426
21268 426
21269 426
21270 426
21271 426
21272 426
21273 426
21274 426
21275 426
21276 426
21277 426
21278 426
21279 426
21280 426
21281 426
21282 426
21283 426
21284 426
21285 426
21286 426
21287 426
21288 426
21289 426
21290 426
21291 426
21292 426
21293 426
21294 426
21295 426
21296 426
21297 426
21298 426
21299 426
21300 426
21301 427
21302 427
21303 427
21304 427
21305 427
21306 427
21307 427
21308 427
21309 427
21310 427
21311 427
21312 427
21313 427
21314 427
21315 427
21316 427
21317 427
21318 427
21319 427
21320 427
21321 427
21322 427
21323 427
21324 427
21325 427
21326 427
21327 427
21328 427
21329 427
21330 427
21331 427
21332 427
21333 427
21334 427
21335 427
21336 427
21337 427
21338 427
21339 427
21340 427
21341 427
21342 427
21343 427
21344 427
21345 427
21346 427
21347 427
21348 427
21349 427
21350 427
21351 428
21352 428
21353 428
21354 428
21355 428
21356 428
21357 428
21358 428
21359 428
21360 428
21361 428
21362 428
21363 428
21364 428
21365 428
21366 428
21367 428
21368 428
21369 428
21370 428
21371 428
21372 428
21373 428
21374 428
21375 428
21376 428
21377 428
21378 428
21379 428
21380 428
21381 428
21382 428
21383 428
21384 428
21385 428
21386 428
21387 428
21388 428
21389 428
21390 428
21391 428
21392 428
21393 428
21394 428
21395 428
21396 428
21397 428
21398 428
21399 428
21400 428
21401 429
21402 429
21403 429
21404 429
21405 429
21406 429
21407 429
21408 429
21409 429
21410 429
21411 429
21412 429
21413 429
21414 429
21415 429
21416 429
21417 429
21418 429
21419 429
21420 429
21421 429
21422 429
21423 429
21424 429
21425 429
21426 429
21427 429
21428 429
21429 429
21430 429
21431 429
21432 429
21433 429
21434 429
21435 429
21436 429
21437 429
21438 429
21439 429
21440 429
21441 429
21442 429
21443 429
21444 429
21445 429
21446 429
21447 429
21448 429
21449 429
21450 429
21451 430
21452 430
21453 430
21454 430
21455 430
21456 430
21457 430
21458 430
21459 430
21460 430
21461 430
21462 430
21463 430
21464 430
21465 430
21466 430
21467 430
21468 430
21469 430
21470 430
21471 430
21472 430
21473 430
21474 430
21475 430
21476 430
21477 430
21478 430
21479 430
21480 430
21481 430
21482 430
21483 430
21484 430
21485 430
21486 430
21487 430
21488 430
21489 430
21490 430
21491 430
21492 430
21493 430
21494 430
21495 430
21496 430
21497 430
21498 430
21499 430
21500 430
21501 431
21502 431
21503 431
21504 431
21505 431
21506 431
21507 431
21508 431
21509 431
21510 431
21511 431
21512 431
21513 431
21514 431
21515 431
21516 431
21517 431
21518 431
21519 431
21520 431
21521 431
21522 431
21523 431
21524 431
21525 431
21526 431
21527 431
21528 431
21529 431
21530 431
21531 431
21532 431
21533 431
21534 431
21535 431
21536 431
21537 431
21538 431
21539 431
21540 431
21541 431
21542 431
21543 431
21544 431
21545 431
21546 431
21547 431
21548 431
21549 431
21550 431
21551 432
21552 432
21553 432
21554 432
21555 432
21556 432
21557 432
21558 432
21559 432
21560 432
21561 432
21562 432
21563 432
21564 432
21565 432
21566 432
21567 432
21568 432
21569 432
21570 432
21571 432
21572 432
21573 432
21574 432
21575 432
21576 432
21577 432
21578 432
21579 432
21580 432
21581 432
21582 432
21583 432
21584 432
21585 432
21586 432
21587 432
21588 432
21589 432
21590 432
21591 432
21592 432
21593 432
21594 432
21595 432
21596 432
21597 432
21598 432
21599 432
21600 432
21601 433
21602 433
21603 433
21604 433
21605 433
21606 433
21607 433
21608 433
21609 433
21610 433
21611 433
21612 433
21613 433
21614 433
21615 433
21616 433
21617 433
21618 433
21619 433
21620 433
21621 433
21622 433
21623 433
21624 433
21625 433
21626 433
21627 433
21628 433
21629 433
21630 433
21631 433
21632 433
21633 433
21634 433
21635 433
21636 433
21637 433
21638 433
21639 433
21640 433
21641 433
21642 433
21643 433
21644 433
21645 433
21646 433
21647 433
21648 433
21649 433
21650 433
21651 434
21652 434
21653 434
21654 434
21655 434
21656 434
21657 434
21658 434
21659 434
21660 434
21661 434
21662 434
21663 434
21664 434
21665 434
21666 434
21667 434
21668 434
21669 434
21670 434
21671 434
21672 434
21673 434
21674 434
21675 434
21676 434
21677 434
21678 434
21679 434
21680 434
21681 434
21682 434
21683 434
21684 434
21685 434
21686 434
21687 434
21688 434
21689 434
21690 434
21691 434
21692 434
21693 434
21694 434
21695 434
21696 434
21697 434
21698 434
21699 434
21700 434
21701 435
21702 435
21703 435
21704 435
21705 435
21706 435
21707 435
21708 435
21709 435
21710 435
21711 435
21712 435
21713 435
21714 435
21715 435
21716 435
21717 435
21718 435
21719 435
21720 435
21721 435
21722 435
21723 435
21724 435
21725 435
21726 435
21727 435
21728 435
21729 435
21730 435
21731 435
21732 435
21733 435
21734 435
21735 435
21736 435
21737 435
21738 435
21739 435
21740 435
21741 435
21742 435
21743 435
21744 435
21745 435
21746 435
21747 435
21748 435
21749 435
21750 435
21751 436
21752 436
21753 436
21754 436
21755 436
21756 436
21757 436
21758 436
21759 436
21760 436
21761 436
21762 436
21763 436
21764 436
21765 436
21766 436
21767 436
21768 436
21769 436
21770 436
21771 436
21772 436
21773 436
21774 436
21775 436
21776 436
21777 436
21778 436
21779 436
21780 436
21781 436
21782 436
21783 436
21784 436
21785 436
21786 436
21787 436
21788 436
21789 436
21790 436
21791 436
21792 436
21793 436
21794 436
21795 436
21796 436
21797 436
21798 436
21799 436
21800 436
21801 437
21802 437
21803 437
21804 437
21805 437
21806 437
21807 437
21808 437
21809 437
21810 437
21811 437
21812 437
21813 437
21814 437
21815 437
21816 437
21817 437
21818 437
21819 437
21820 437
21821 437
21822 437
21823 437
21824 437
21825 437
21826 437
21827 437
21828 437
21829 437
21830 437
21831 437
21832 437
21833 437
21834 437
21835 437
21836 437
21837 437
21838 437
21839 437
21840 437
21841 437
21842 437
21843 437
21844 437
21845 437
21846 437
21847 437
21848 437
21849 437
21850 437
21851 438
21852 438
21853 438
21854 438
21855 438
21856 438
21857 438
21858 438
21859 438
21860 438
21861 438
21862 438
21863 438
21864 438
21865 438
21866 438
21867 438
21868 438
21869 438
21870 438
21871 438
21872 438
21873 438
21874 438
21875 438
21876 438
21877 438
21878 438
21879 438
21880 438
21881 438
21882 438
21883 438
21884 438
21885 438
21886 438
21887 438
21888 438
21889 438
21890 438
21891 438
21892 438
21893 438
21894 438
21895 438
21896 438
21897 438
21898 438
21899 438
21900 438
21901 439
21902 439
21903 439
21904 439
21905 439
21906 439
21907 439
21908 439
21909 439
21910 439
21911 439
21912 439
21913 439
21914 439
21915 439
21916 439
21917 439
21918 439
21919 439
21920 439
21921 439
21922 439
21923 439
21924 439
21925 439
21926 439
21927 439
21928 439
21929 439
21930 439
21931 439
21932 439
21933 439
21934 439
21935 439
21936 439
21937 439
21938 439
21939 439
21940 439
21941 439
21942 439
21943 439
21944 439
21945 439
21946 439
21947 439
21948 439
21949 439
21950 439
21951 440
21952 440
21953 440
21954 440
21955 440
21956 440
21957 440
21958 440
21959 440
21960 440
21961 440
21962 440
21963 440
21964 440
21965 440
21966 440
21967 440
21968 440
21969 440
21970 440
21971 440
21972 440
21973 440
21974 440
21975 440
21976 440
21977 440
21978 440
21979 440
21980 440
21981 440
21982 440
21983 440
21984 440
21985 440
21986 440
21987 440
21988 440
21989 440
21990 440
21991 440
21992 440
21993 440
21994 440
21995 440
21996 440
21997 440
21998 440
21999 440
22000 440
22001 441
22002 441
22003 441
22004 441
22005 441
22006 441
22007 441
22008 441
22009 441
22010 441
22011 441
22012 441
22013 441
22014 441
22015 441
22016 441
22017 441
22018 441
22019 441
22020 441
22021 441
22022 441
22023 441
22024 441
22025 441
22026 441
22027 441
22028 441
22029 441
22030 441
22031 441
22032 441
22033 441
22034 441
22035 441
22036 441
22037 441
22038 441
22039 441
22040 441
22041 441
22042 441
22043 441
22044 441
22045 441
22046 441
22047 441
22048 441
22049 441
22050 441
22051 442
22052 442
22053 442
22054 442
22055 442
22056 442
22057 442
22058 442
22059 442
22060 442
22061 442
22062 442
22063 442
22064 442
22065 442
22066 442
22067 442
22068 442
22069 442
22070 442
22071 442
22072 442
22073 442
22074 442
22075 442
22076 442
22077 442
22078 442
22079 442
22080 442
22081 442
22082 442
22083 442
22084 442
22085 442
22086 442
22087 442
22088 442
22089 442
22090 442
22091 442
22092 442
22093 442
22094 442
22095 442
22096 442
22097 442
22098 442
22099 442
22100 442
22101 443
22102 443
22103 443
22104 443
22105 443
22106 443
22107 443
22108 443
22109 443
22110 443
22111 443
22112 443
22113 443
22114 443
22115 443
22116 443
22117 443
22118 443
22119 443
22120 443
22121 443
22122 443
22123 443
22124 443
22125 443
22126 443
22127 443
22128 443
22129 443
22130 443
22131 443
22132 443
22133 443
22134 443
22135 443
22136 443
22137 443
22138 443
22139 443
22140 443
22141 443
22142 443
22143 443
22144 443
22145 443
22146 443
22147 443
22148 443
22149 443
22150 443
22151 444
22152 444
22153 444
22154 444
22155 444
22156 444
22157 444
22158 444
22159 444
22160 444
22161 444
22162 444
22163 444
22164 444
22165 444
22166 444
22167 444
22168 444
22169 444
22170 444
22171 444
22172 444
22173 444
22174 444
22175 444
22176 444
22177 444
22178 444
22179 444
22180 444
22181 444
22182 444
22183 444
22184 444
22185 444
22186 444
22187 444
22188 444
22189 444
22190 444
22191 444
22192 444
22193 444
22194 444
22195 444
22196 444
22197 444
22198 444
22199 444
22200 444
22201 445
22202 445
22203 445
22204 445
22205 445
22206 445
22207 445
22208 445
22209 445
22210 445
22211 445
22212 445
22213 445
22214 445
22215 445
22216 445
22217 445
22218 445
22219 445
22220 445
22221 445
22222 445
22223 445
22224 445
22225 445
22226 445
22227 445
22228 445
22229 445
22230 445
22231 445
22232 445
22233 445
22234 445
22235 445
22236 445
22237 445
22238 445
22239 445
22240 445
22241 445
22242 445
22243 445
22244 445
22245 445
22246 445
22247 445
22248 445
22249 445
22250 445
22251 446
22252 446
22253 446
22254 446
22255 446
22256 446
22257 446
22258 446
22259 446
22260 446
22261 446
22262 446
22263 446
22264 446
22265 446
22266 446
22267 446
22268 446
22269 446
22270 446
22271 446
22272 446
22273 446
22274 446
22275 446
22276 446
22277 446
22278 446
22279 446
22280 446
22281 446
22282 446
22283 446
22284 446
22285 446
22286 446
22287 446
22288 446
22289 446
22290 446
22291 446
22292 446
22293 446
22294 446
22295 446
22296 446
22297 446
22298 446
22299 446
22300 446
22301 447
22302 447
22303 447
22304 447
22305 447
22306 447
22307 447
22308 447
22309 447
22310 447
22311 447
22312 447
22313 447
22314 447
22315 447
22316 447
22317 447
22318 447
22319 447
22320 447
22321 447
22322 447
22323 447
22324 447
22325 447
22326 447
22327 447
22328 447
22329 447
22330 447
22331 447
22332 447
22333 447
22334 447
22335 447
22336 447
22337 447
22338 447
22339 447
22340 447
22341 447
22342 447
22343 447
22344 447
22345 447
22346 447
22347 447
22348 447
22349 447
22350 447
22351 448
22352 448
22353 448
22354 448
22355 448
22356 448
22357 448
22358 448
22359 448
22360 448
22361 448
22362 448
22363 448
22364 448
22365 448
22366 448
22367 448
22368 448
22369 448
22370 448
22371 448
22372 448
22373 448
22374 448
22375 448
22376 448
22377 448
22378 448
22379 448
22380 448
22381 448
22382 448
22383 448
22384 448
22385 448
22386 448
22387 448
22388 448
22389 448
22390 448
22391 448
22392 448
22393 448
22394 448
22395 448
22396 448
22397 448
22398 448
22399 448
22400 448
22401 449
22402 449
22403 449
22404 449
22405 449
22406 449
22407 449
22408 449
22409 449
22410 449
22411 449
22412 449
22413 449
22414 449
22415 449
22416 449
22417 449
22418 449
22419 449
22420 449
22421 449
22422 449
22423 449
22424 449
22425 449
22426 449
22427 449
22428 449
22429 449
22430 449
22431 449
22432 449
22433 449
22434 449
22435 449
22436 449
22437 449
22438 449
22439 449
22440 449
22441 449
22442 449
22443 449
22444 449
22445 449
22446 449
22447 449
22448 449
22449 449
22450 449
22451 450
22452 450
22453 450
22454 450
22455 450
22456 450
22457 450
22458 450
22459 450
22460 450
22461 450
22462 450
22463 450
22464 450
22465 450
22466 450
22467 450
22468 450
22469 450
22470 450
22471 450
22472 450
22473 450
22474 450
22475 450
22476 450
22477 450
22478 450
22479 450
22480 450
22481 450
22482 450
22483 450
22484 450
22485 450
22486 450
22487 450
22488 450
22489 450
22490 450
22491 450
22492 450
22493 450
22494 450
22495 450
22496 450
22497 450
22498 450
22499 450
22500 450
22501 451
22502 451
22503 451
22504 451
22505 451
22506 451
22507 451
22508 451
22509 451
22510 451
22511 451
22512 451
22513 451
22514 451
22515 451
22516 451
22517 451
22518 451
22519 451
22520 451
22521 451
22522 451
22523 451
22524 451
22525 451
22526 451
22527 451
22528 451
22529 451
22530 451
22531 451
22532 451
22533 451
22534 451
22535 451
22536 451
22537 451
22538 451
22539 451
22540 451
22541 451
22542 451
22543 451
22544 451
22545 451
22546 451
22547 451
22548 451
22549 451
22550 451
22551 452
22552 452
22553 452
22554 452
22555 452
22556 452
22557 452
22558 452
22559 452
22560 452
22561 452
22562 452
22563 452
22564 452
22565 452
22566 452
22567 452
22568 452
22569 452
22570 452
22571 452
22572 452
22573 452
22574 452
22575 452
22576 452
22577 452
22578 452
22579 452
22580 452
22581 452
22582 452
22583 452
22584 452
22585 452
22586 452
22587 452
22588 452
22589 452
22590 452
22591 452
22592 452
22593 452
22594 452
22595 452
22596 452
22597 452
22598 452
22599 452
22600 452
22601 453
22602 453
22603 453
22604 453
22605 453
22606 453
22607 453
22608 453
22609 453
22610 453
22611 453
22612 453
22613 453
22614 453
22615 453
22616 453
22617 453
22618 453
22619 453
22620 453
22621 453
22622 453
22623 453
22624 453
22625 453
22626 453
22627 453
22628 453
22629 453
22630 453
22631 453
22632 453
22633 453
22634 453
22635 453
22636 453
22637 453
22638 453
22639 453
22640 453
22641 453
22642 453
22643 453
22644 453
22645 453
22646 453
22647 453
22648 453
22649 453
22650 453
22651 454
22652 454
22653 454
22654 454
22655 454
22656 454
22657 454
22658 454
22659 454
22660 454
22661 454
22662 454
22663 454
22664 454
22665 454
22666 454
22667 454
22668 454
22669 454
22670 454
22671 454
22672 454
22673 454
22674 454
22675 454
22676 454
22677 454
22678 454
22679 454
22680 454
22681 454
22682 454
22683 454
22684 454
22685 454
22686 454
22687 454
22688 454
22689 454
22690 454
22691 454
22692 454
22693 454
22694 454
22695 454
22696 454
22697 454
22698 454
22699 454
22700 454
22701 455
22702 455
22703 455
22704 455
22705 455
22706 455
22707 455
22708 455
22709 455
22710 455
22711 455
22712 455
22713 455
22714 455
22715 455
22716 455
22717 455
22718 455
22719 455
22720 455
22721 455
22722 455
22723 455
22724 455
22725 455
22726 455
22727 455
22728 455
22729 455
22730 455
22731 455
22732 455
22733 455
22734 455
22735 455
22736 455
22737 455
22738 455
22739 455
22740 455
22741 455
22742 455
22743 455
22744 455
22745 455
22746 455
22747 455
22748 455
22749 455
22750 455
22751 456
22752 456
22753 456
22754 456
22755 456
22756 456
22757 456
22758 456
22759 456
22760 456
22761 456
22762 456
22763 456
22764 456
22765 456
22766 456
22767 456
22768 456
22769 456
22770 456
22771 456
22772 456
22773 456
22774 456
22775 456
22776 456
22777 456
22778 456
22779 456
22780 456
22781 456
22782 456
22783 456
22784 456
22785 456
22786 456
22787 456
22788 456
22789 456
22790 456
22791 456
22792 456
22793 456
22794 456
22795 456
22796 456
22797 456
22798 456
22799 456
22800 456
22801 457
22802 457
22803 457
22804 457
22805 457
22806 457
22807 457
22808 457
22809 457
22810 457
22811 457
22812 457
22813 457
22814 457
22815 457
22816 457
22817 457
22818 457
22819 457
22820 457
22821 457
22822 457
22823 457
22824 457
22825 457
22826 457
22827 457
22828 457
22829 457
22830 457
22831 457
22832 457
22833 457
22834 457
22835 457
22836 457
22837 457
22838 457
22839 457
22840 457
22841 457
22842 457
22843 457
22844 457
22845 457
22846 457
22847 457
22848 457
22849 457
22850 457
22851 458
22852 458
22853 458
22854 458
22855 458
22856 458
22857 458
22858 458
22859 458
22860 458
22861 458
22862 458
22863 458
22864 458
22865 458
22866 458
22867 458
22868 458
22869 458
22870 458
22871 458
22872 458
22873 458
22874 458
22875 458
22876 458
22877 458
22878 458
22879 458
22880 458
22881 458
22882 458
22883 458
22884 458
22885 458
22886 458
22887 458
22888 458
22889 458
22890 458
22891 458
22892 458
22893 458
22894 458
22895 458
22896 458
22897 458
22898 458
22899 458
22900 458
22901 459
22902 459
22903 459
22904 459
22905 459
22906 459
22907 459
22908 459
22909 459
22910 459
22911 459
22912 459
22913 459
22914 459
22915 459
22916 459
22917 459
22918 459
22919 459
22920 459
22921 459
22922 459
22923 459
22924 459
22925 459
22926 459
22927 459
22928 459
22929 459
22930 459
22931 459
22932 459
22933 459
22934 459
22935 459
22936 459
22937 459
22938 459
22939 459
22940 459
22941 459
22942 459
22943 459
22944 459
22945 459
22946 459
22947 459
22948 459
22949 459
22950 459
22951 460
22952 460
22953 460
22954 460
22955 460
22956 460
22957 460
22958 460
22959 460
22960 460
22961 460
22962 460
22963 460
22964 460
22965 460
22966 460
22967 460
22968 460
22969 460
22970 460
22971 460
22972 460
22973 460
22974 460
22975 460
22976 460
22977 460
22978 460
22979 460
22980 460
22981 460
22982 460
22983 460
22984 460
22985 460
22986 460
22987 460
22988 460
22989 460
22990 460
22991 460
22992 460
22993 460
22994 460
22995 460
22996 460
22997 460
22998 460
22999 460
23000 460
23001 461
23002 461
23003 461
23004 461
23005 461
23006 461
23007 461
23008 461
23009 461
23010 461
23011 461
23012 461
23013 461
23014 461
23015 461
23016 461
23017 461
23018 461
23019 461
23020 461
23021 461
23022 461
23023 461
23024 461
23025 461
23026 461
23027 461
23028 461
23029 461
23030 461
23031 461
23032 461
23033 461
23034 461
23035 461
23036 461
23037 461
23038 461
23039 461
23040 461
23041 461
23042 461
23043 461
23044 461
23045 461
23046 461
23047 461
23048 461
23049 461
23050 461
23051 462
23052 462
23053 462
23054 462
23055 462
23056 462
23057 462
23058 462
23059 462
23060 462
23061 462
23062 462
23063 462
23064 462
23065 462
23066 462
23067 462
23068 462
23069 462
23070 462
23071 462
23072 462
23073 462
23074 462
23075 462
23076 462
23077 462
23078 462
23079 462
23080 462
23081 462
23082 462
23083 462
23084 462
23085 462
23086 462
23087 462
23088 462
23089 462
23090 462
23091 462
23092 462
23093 462
23094 462
23095 462
23096 462
23097 462
23098 462
23099 462
23100 462
23101 463
23102 463
23103 463
23104 463
23105 463
23106 463
23107 463
23108 463
23109 463
23110 463
23111 463
23112 463
23113 463
23114 463
23115 463
23116 463
23117 463
23118 463
23119 463
23120 463
23121 463
23122 463
23123 463
23124 463
23125 463
23126 463
23127 463
23128 463
23129 463
23130 463
23131 463
23132 463
23133 463
23134 463
23135 463
23136 463
23137 463
23138 463
23139 463
23140 463
23141 463
23142 463
23143 463
23144 463
23145 463
23146 463
23147 463
23148 463
23149 463
23150 463
23151 464
23152 464
23153 464
23154 464
23155 464
23156 464
23157 464
23158 464
23159 464
23160 464
23161 464
23162 464
23163 464
23164 464
23165 464
23166 464
23167 464
23168 464
23169 464
23170 464
23171 464
23172 464
23173 464
23174 464
23175 464
23176 464
23177 464
23178 464
23179 464
23180 464
23181 464
23182 464
23183 464
23184 464
23185 464
23186 464
23187 464
23188 464
23189 464
23190 464
23191 464
23192 464
23193 464
23194 464
23195 464
23196 464
23197 464
23198 464
23199 464
23200 464
23201 465
23202 465
23203 465
23204 465
23205 465
23206 465
23207 465
23208 465
23209 465
23210 465
23211 465
23212 465
23213 465
23214 465
23215 465
23216 465
23217 465
23218 465
23219 465
23220 465
23221 465
23222 465
23223 465
23224 465
23225 465
23226 465
23227 465
23228 465
23229 465
23230 465
23231 465
23232 465
23233 465
23234 465
23235 465
23236 465
23237 465
23238 465
23239 465
23240 465
23241 465
23242 465
23243 465
23244 465
23245 465
23246 465
23247 465
23248 465
23249 465
23250 465
23251 466
23252 466
23253 466
23254 466
23255 466
23256 466
23257 466
23258 466
23259 466
23260 466
23261 466
23262 466
23263 466
23264 466
23265 466
23266 466
23267 466
23268 466
23269 466
23270 466
23271 466
23272 466
23273 466
23274 466
23275 466
23276 466
23277 466
23278 466
23279 466
23280 466
23281 466
23282 466
23283 466
23284 466
23285 466
23286 466
23287 466
23288 466
23289 466
23290 466
23291 466
23292 466
23293 466
23294 466
23295 466
23296 466
23297 466
23298 466
23299 466
23300 466
23301 467
23302 467
23303 467
23304 467
23305 467
23306 467
23307 467
23308 467
23309 467
23310 467
23311 467
23312 467
23313 467
23314 467
23315 467
23316 467
23317 467
23318 467
23319 467
23320 467
23321 467
23322 467
23323 467
23324 467
23325 467
23326 467
23327 467
23328 467
23329 467
23330 467
23331 467
23332 467
23333 467
23334 467
23335 467
23336 467
23337 467
23338 467
23339 467
23340 467
23341 467
23342 467
23343 467
23344 467
23345 467
23346 467
23347 467
23348 467
23349 467
23350 467
23351 468
23352 468
23353 468
23354 468
23355 468
23356 468
23357 468
23358 468
23359 468
23360 468
23361 468
23362 468
23363 468
23364 468
23365 468
23366 468
23367 468
23368 468
23369 468
23370 468
23371 468
23372 468
23373 468
23374 468
23375 468
23376 468
23377 468
23378 468
23379 468
23380 468
23381 468
23382 468
23383 468
23384 468
23385 468
23386 468
23387 468
23388 468
23389 468
23390 468
23391 468
23392 468
23393 468
23394 468
23395 468
23396 468
23397 468
23398 468
23399 468
23400 468
23401 469
23402 469
23403 469
23404 469
23405 469
23406 469
23407 469
23408 469
23409 469
23410 469
23411 469
23412 469
23413 469
23414 469
23415 469
23416 469
23417 469
23418 469
23419 469
23420 469
23421 469
23422 469
23423 469
23424 469
23425 469
23426 469
23427 469
23428 469
23429 469
23430 469
23431 469
23432 469
23433 469
23434 469
23435 469
23436 469
23437 469
23438 469
23439 469
23440 469
23441 469
23442 469
23443 469
23444 469
23445 469
23446 469
23447 469
23448 469
23449 469
23450 469
23451 470
23452 470
23453 470
23454 470
23455 470
23456 470
23457 470
23458 470
23459 470
23460 470
23461 470
23462 470
23463 470
23464 470
23465 470
23466 470
23467 470
23468 470
23469 470
23470 470
23471 470
23472 470
23473 470
23474 470
23475 470
23476 470
23477 470
23478 470
23479 470
23480 470
23481 470
23482 470
23483 470
23484 470
23485 470
23486 470
23487 470
23488 470
23489 470
23490 470
23491 470
23492 470
23493 470
23494 470
23495 470
23496 470
23497 470
23498 470
23499 470
23500 470
23501 471
23502 471
23503 471
23504 471
23505 471
23506 471
23507 471
23508 471
23509 471
23510 471
23511 471
23512 471
23513 471
23514 471
23515 471
23516 471
23517 471
23518 471
23519 471
23520 471
23521 471
23522 471
23523 471
23524 471
23525 471
23526 471
23527 471
23528 471
23529 471
23530 471
23531 471
23532 471
23533 471
23534 471
23535 471
23536 471
23537 471
23538 471
23539 471
23540 471
23541 471
23542 471
23543 471
23544 471
23545 471
23546 471
23547 471
23548 471
23549 471
23550 471
23551 472
23552 472
23553 472
23554 472
23555 472
23556 472
23557 472
23558 472
23559 472
23560 472
23561 472
23562 472
23563 472
23564 472
23565 472
23566 472
23567 472
23568 472
23569 472
23570 472
23571 472
23572 472
23573 472
23574 472
23575 472
23576 472
23577 472
23578 472
23579 472
23580 472
23581 472
23582 472
23583 472
23584 472
23585 472
23586 472
23587 472
23588 472
23589 472
23590 472
23591 472
23592 472
23593 472
23594 472
23595 472
23596 472
23597 472
23598 472
23599 472
23600 472
23601 473
23602 473
23603 473
23604 473
23605 473
23606 473
23607 473
23608 473
23609 473
23610 473
23611 473
23612 473
23613 473
23614 473
23615 473
23616 473
23617 473
23618 473
23619 473
23620 473
23621 473
23622 473
23623 473
23624 473
23625 473
23626 473
23627 473
23628 473
23629 473
23630 473
23631 473
23632 473
23633 473
23634 473
23635 473
23636 473
23637 473
23638 473
23639 473
23640 473
23641 473
23642 473
23643 473
23644 473
23645 473
23646 473
23647 473
23648 473
23649 473
23650 473
23651 474
23652 474
23653 474
23654 474
23655 474
23656 474
23657 474
23658 474
23659 474
23660 474
23661 474
23662 474
23663 474
23664 474
23665 474
23666 474
23667 474
23668 474
23669 474
23670 474
23671 474
23672 474
23673 474
23674 474
23675 474
23676 474
23677 474
23678 474
23679 474
23680 474
23681 474
23682 474
23683 474
23684 474
23685 474
23686 474
23687 474
23688 474
23689 474
23690 474
23691 474
23692 474
23693 474
23694 474
23695 474
23696 474
23697 474
23698 474
23699 474
23700 474
23701 475
23702 475
23703 475
23704 475
23705 475
23706 475
23707 475
23708 475
23709 475
23710 475
23711 475
23712 475
23713 475
23714 475
23715 475
23716 475
23717 475
23718 475
23719 475
23720 475
23721 475
23722 475
23723 475
23724 475
23725 475
23726 475
23727 475
23728 475
23729 475
23730 475
23731 475
23732 475
23733 475
23734 475
23735 475
23736 475
23737 475
23738 475
23739 475
23740 475
23741 475
23742 475
23743 475
23744 475
23745 475
23746 475
23747 475
23748 475
23749 475
23750 475
23751 476
23752 476
23753 476
23754 476
23755 476
23756 476
23757 476
23758 476
23759 476
23760 476
23761 476
23762 476
23763 476
23764 476
23765 476
23766 476
23767 476
23768 476
23769 476
23770 476
23771 476
23772 476
23773 476
23774 476
23775 476
23776 476
23777 476
23778 476
23779 476
23780 476
23781 476
23782 476
23783 476
23784 476
23785 476
23786 476
23787 476
23788 476
23789 476
23790 476
23791 476
23792 476
23793 476
23794 476
23795 476
23796 476
23797 476
23798 476
23799 476
23800 476
23801 477
23802 477
23803 477
23804 477
23805 477
23806 477
23807 477
23808 477
23809 477
23810 477
23811 477
23812 477
23813 477
23814 477
23815 477
23816 477
23817 477
23818 477
23819 477
23820 477
23821 477
23822 477
23823 477
23824 477
23825 477
23826 477
23827 477
23828 477
23829 477
23830 477
23831 477
23832 477
23833 477
23834 477
23835 477
23836 477
23837 477
23838 477
23839 477
23840 477
23841 477
23842 477
23843 477
23844 477
23845 477
23846 477
23847 477
23848 477
23849 477
23850 477
23851 478
23852 478
23853 478
23854 478
23855 478
23856 478
23857 478
23858 478
23859 478
23860 478
23861 478
23862 478
23863 478
23864 478
23865 478
23866 478
23867 478
23868 478
23869 478
23870 478
23871 478
23872 478
23873 478
23874 478
23875 478
23876 478
23877 478
23878 478
23879 478
23880 478
23881 478
23882 478
23883 478
23884 478
23885 478
23886 478
23887 478
23888 478
23889 478
23890 478
23891 478
23892 478
23893 478
23894 478
23895 478
23896 478
23897 478
23898 478
23899 478
23900 478
23901 479
23902 479
23903 479
23904 479
23905 479
23906 479
23907 479
23908 479
23909 479
23910 479
23911 479
23912 479
23913 479
23914 479
23915 479
23916 479
23917 479
23918 479
23919 479
23920 479
23921 479
23922 479
23923 479
23924 479
23925 479
23926 479
23927 479
23928 479
23929 479
23930 479
23931 479
23932 479
23933 479
23934 479
23935 479
23936 479
23937 479
23938 479
23939 479
23940 479
23941 479
23942 479
23943 479
23944 479
23945 479
23946 479
23947 479
23948 479
23949 479
23950 479
23951 480
23952 480
23953 480
23954 480
23955 480
23956 480
23957 480
23958 480
23959 480
23960 480
23961 480
23962 480
23963 480
23964 480
23965 480
23966 480
23967 480
23968 480
23969 480
23970 480
23971 480
23972 480
23973 480
23974 480
23975 480
23976 480
23977 480
23978 480
23979 480
23980 480
23981 480
23982 480
23983 480
23984 480
23985 480
23986 480
23987 480
23988 480
23989 480
23990 480
23991 480
23992 480
23993 480
23994 480
23995 480
23996 480
23997 480
23998 480
23999 480
24000 480
24001 481
24002 481
24003 481
24004 481
24005 481
24006 481
24007 481
24008 481
24009 481
24010 481
24011 481
24012 481
24013 481
24014 481
24015 481
24016 481
24017 481
24018 481
24019 481
24020 481
24021 481
24022 481
24023 481
24024 481
24025 481
24026 481
24027 481
24028 481
24029 481
24030 481
24031 481
24032 481
24033 481
24034 481
24035 481
24036 481
24037 481
24038 481
24039 481
24040 481
24041 481
24042 481
24043 481
24044 481
24045 481
24046 481
24047 481
24048 481
24049 481
24050 481
24051 482
24052 482
24053 482
24054 482
24055 482
24056 482
24057 482
24058 482
24059 482
24060 482
24061 482
24062 482
24063 482
24064 482
24065 482
24066 482
24067 482
24068 482
24069 482
24070 482
24071 482
24072 482
24073 482
24074 482
24075 482
24076 482
24077 482
24078 482
24079 482
24080 482
24081 482
24082 482
24083 482
24084 482
24085 482
24086 482
24087 482
24088 482
24089 482
24090 482
24091 482
24092 482
24093 482
24094 482
24095 482
24096 482
24097 482
24098 482
24099 482
24100 482
24101 483
24102 483
24103 483
24104 483
24105 483
24106 483
24107 483
24108 483
24109 483
24110 483
24111 483
24112 483
24113 483
24114 483
24115 483
24116 483
24117 483
24118 483
24119 483
24120 483
24121 483
24122 483
24123 483
24124 483
24125 483
24126 483
24127 483
24128 483
24129 483
24130 483
24131 483
24132 483
24133 483
24134 483
24135 483
24136 483
24137 483
24138 483
24139 483
24140 483
24141 483
24142 483
24143 483
24144 483
24145 483
24146 483
24147 483
24148 483
24149 483
24150 483
24151 484
24152 484
24153 484
24154 484
24155 484
24156 484
24157 484
24158 484
24159 484
24160 484
24161 484
24162 484
24163 484
24164 484
24165 484
24166 484
24167 484
24168 484
24169 484
24170 484
24171 484
24172 484
24173 484
24174 484
24175 484
24176 484
24177 484
24178 484
24179 484
24180 484
24181 484
24182 484
24183 484
24184 484
24185 484
24186 484
24187 484
24188 484
24189 484
24190 484
24191 484
24192 484
24193 484
24194 484
24195 484
24196 484
24197 484
24198 484
24199 484
24200 484
24201 485
24202 485
24203 485
24204 485
24205 485
24206 485
24207 485
24208 485
24209 485
24210 485
24211 485
24212 485
24213 485
24214 485
24215 485
24216 485
24217 485
24218 485
24219 485
24220 485
24221 485
24222 485
24223 485
24224 485
24225 485
24226 485
24227 485
24228 485
24229 485
24230 485
24231 485
24232 485
24233 485
24234 485
24235 485
24236 485
24237 485
24238 485
24239 485
24240 485
24241 485
24242 485
24243 485
24244 485
24245 485
24246 485
24247 485
24248 485
24249 485
24250 485
24251 486
24252 486
24253 486
24254 486
24255 486
24256 486
24257 486
24258 486
24259 486
24260 486
24261 486
24262 486
24263 486
24264 486
24265 486
24266 486
24267 486
24268 486
24269 486
24270 486
24271 486
24272 486
24273 486
24274 486
24275 486
24276 486
24277 486
24278 486
24279 486
24280 486
24281 486
24282 486
24283 486
24284 486
24285 486
24286 486
24287 486
24288 486
24289 486
24290 486
24291 486
24292 486
24293 486
24294 486
24295 486
24296 486
24297 486
24298 486
24299 486
24300 486
24301 487
24302 487
24303 487
24304 487
24305 487
24306 487
24307 487
24308 487
24309 487
24310 487
24311 487
24312 487
24313 487
24314 487
24315 487
24316 487
24317 487
24318 487
24319 487
24320 487
24321 487
24322 487
24323 487
24324 487
24325 487
24326 487
24327 487
24328 487
24329 487
24330 487
24331 487
24332 487
24333 487
24334 487
24335 487
24336 487
24337 487
24338 487
24339 487
24340 487
24341 487
24342 487
24343 487
24344 487
24345 487
24346 487
24347 487
24348 487
24349 487
24350 487
24351 488
24352 488
24353 488
24354 488
24355 488
24356 488
24357 488
24358 488
24359 488
24360 488
24361 488
24362 488
24363 488
24364 488
24365 488
24366 488
24367 488
24368 488
24369 488
24370 488
24371 488
24372 488
24373 488
24374 488
24375 488
24376 488
24377 488
24378 488
24379 488
24380 488
24381 488
24382 488
24383 488
24384 488
24385 488
24386 488
24387 488
24388 488
24389 488
24390 488
24391 488
24392 488
24393 488
24394 488
24395 488
24396 488
24397 488
24398 488
24399 488
24400 488
24401 489
24402 489
24403 489
24404 489
24405 489
24406 489
24407 489
24408 489
24409 489
24410 489
24411 489
24412 489
24413 489
24414 489
24415 489
24416 489
24417 489
24418 489
24419 489
24420 489
24421 489
24422 489
24423 489
24424 489
24425 489
24426 489
24427 489
24428 489
24429 489
24430 489
24431 489
24432 489
24433 489
24434 489
24435 489
24436 489
24437 489
24438 489
24439 489
24440 489
24441 489
24442 489
24443 489
24444 489
24445 489
24446 489
24447 489
24448 489
24449 489
24450 489
24451 490
24452 490
24453 490
24454 490
24455 490
24456 490
24457 490
24458 490
24459 490
24460 490
24461 490
24462 490
24463 490
24464 490
24465 490
24466 490
24467 490
24468 490
24469 490
24470 490
24471 490
24472 490
24473 490
24474 490
24475 490
24476 490
24477 490
24478 490
24479 490
24480 490
24481 490
24482 490
24483 490
24484 490
24485 490
24486 490
24487 490
24488 490
24489 490
24490 490
24491 490
24492 490
24493 490
24494 490
24495 490
24496 490
24497 490
24498 490
24499 490
24500 490
24501 491
24502 491
24503 491
24504 491
24505 491
24506 491
24507 491
24508 491
24509 491
24510 491
24511 491
24512 491
24513 491
24514 491
24515 491
24516 491
24517 491
24518 491
24519 491
24520 491
24521 491
24522 491
24523 491
24524 491
24525 491
24526 491
24527 491
24528 491
24529 491
24530 491
24531 491
24532 491
24533 491
24534 491
24535 491
24536 491
24537 491
24538 491
24539 491
24540 491
24541 491
24542 491
24543 491
24544 491
24545 491
24546 491
24547 491
24548 491
24549 491
24550 491
24551 492
24552 492
24553 492
24554 492
24555 492
24556 492
24557 492
24558 492
24559 492
24560 492
24561 492
24562 492
24563 492
24564 492
24565 492
24566 492
24567 492
24568 492
24569 492
24570 492
24571 492
24572 492
24573 492
24574 492
24575 492
24576 492
24577 492
24578 492
24579 492
24580 492
24581 492
24582 492
24583 492
24584 492
24585 492
24586 492
24587 492
24588 492
24589 492
24590 492
24591 492
24592 492
24593 492
24594 492
24595 492
24596 492
24597 492
24598 492
24599 492
24600 492
24601 493
24602 493
24603 493
24604 493
24605 493
24606 493
24607 493
24608 493
24609 493
24610 493
24611 493
24612 493
24613 493
24614 493
24615 493
24616 493
24617 493
24618 493
24619 493
24620 493
24621 493
24622 493
24623 493
24624 493
24625 493
24626 493
24627 493
24628 493
24629 493
24630 493
24631 493
24632 493
24633 493
24634 493
24635 493
24636 493
24637 493
24638 493
24639 493
24640 493
24641 493
24642 493
24643 493
24644 493
24645 493
24646 493
24647 493
24648 493
24649 493
24650 493
24651 494
24652 494
24653 494
24654 494
24655 494
24656 494
24657 494
24658 494
24659 494
24660 494
24661 494
24662 494
24663 494
24664 494
24665 494
24666 494
24667 494
24668 494
24669 494
24670 494
24671 494
24672 494
24673 494
24674 494
24675 494
24676 494
24677 494
24678 494
24679 494
24680 494
24681 494
24682 494
24683 494
24684 494
24685 494
24686 494
24687 494
24688 494
24689 494
24690 494
24691 494
24692 494
24693 494
24694 494
24695 494
24696 494
24697 494
24698 494
24699 494
24700 494
24701 495
24702 495
24703 495
24704 495
24705 495
24706 495
24707 495
24708 495
24709 495
24710 495
24711 495
24712 495
24713 495
24714 495
24715 495
24716 495
24717 495
24718 495
24719 495
24720 495
24721 495
24722 495
24723 495
24724 495
24725 495
24726 495
24727 495
24728 495
24729 495
24730 495
24731 495
24732 495
24733 495
24734 495
24735 495
24736 495
24737 495
24738 495
24739 495
24740 495
24741 495
24742 495
24743 495
24744 495
24745 495
24746 495
24747 495
24748 495
24749 495
24750 495
24751 496
24752 496
24753 496
24754 496
24755 496
24756 496
24757 496
24758 496
24759 496
24760 496
24761 496
24762 496
24763 496
24764 496
24765 496
24766 496
24767 496
24768 496
24769 496
24770 496
24771 496
24772 496
24773 496
24774 496
24775 496
24776 496
24777 496
24778 496
24779 496
24780 496
24781 496
24782 496
24783 496
24784 496
24785 496
24786 496
24787 496
24788 496
24789 496
24790 496
24791 496
24792 496
24793 496
24794 496
24795 496
24796 496
24797 496
24798 496
24799 496
24800 496
24801 497
24802 497
24803 497
24804 497
24805 497
24806 497
24807 497
24808 497
24809 497
24810 497
24811 497
24812 497
24813 497
24814 497
24815 497
24816 497
24817 497
24818 497
24819 497
24820 497
24821 497
24822 497
24823 497
24824 497
24825 497
24826 497
24827 497
24828 497
24829 497
24830 497
24831 497
24832 497
24833 497
24834 497
24835 497
24836 497
24837 497
24838 497
24839 497
24840 497
24841 497
24842 497
24843 497
24844 497
24845 497
24846 497
24847 497
24848 497
24849 497
24850 497
24851 498
24852 498
24853 498
24854 498
24855 498
24856 498
24857 498
24858 498
24859 498
24860 498
24861 498
24862 498
24863 498
24864 498
24865 498
24866 498
24867 498
24868 498
24869 498
24870 498
24871 498
24872 498
24873 498
24874 498
24875 498
24876 498
24877 498
24878 498
24879 498
24880 498
24881 498
24882 498
24883 498
24884 498
24885 498
24886 498
24887 498
24888 498
24889 498
24890 498
24891 498
24892 498
24893 498
24894 498
24895 498
24896 498
24897 498
24898 498
24899 498
24900 498
24901 499
24902 499
24903 499
24904 499
24905 499
24906 499
24907 499
24908 499
24909 499
24910 499
24911 499
24912 499
24913 499
24914 499
24915 499
24916 499
24917 499
24918 499
24919 499
24920 499
24921 499
24922 499
24923 499
24924 499
24925 499
24926 499
24927 499
24928 499
24929 499
24930 499
24931 499
24932 499
24933 499
24934 499
24935 499
24936 499
24937 499
24938 499
24939 499
24940 499
24941 499
24942 499
24943 499
24944 499
24945 499
24946 499
24947 499
24948 499
24949 499
24950 499
24951 500
24952 500
24953 500
24954 500
24955 500
24956 500
24957 500
24958 500
24959 500
24960 500
24961 500
24962 500
24963 500
24964 500
24965 500
24966 500
24967 500
24968 500
24969 500
24970 500
24971 500
24972 500
24973 500
24974 500
24975 500
24976 500
24977 500
24978 500
24979 500
24980 500
24981 500
24982 500
24983 500
24984 500
24985 500
24986 500
24987 500
24988 500
24989 500
24990 500
24991 500
24992 500
24993 500
24994 500
24995 500
24996 500
24997 500
24998 500
24999 500
25000 500
25001 501
25002 501
25003 501
25004 501
25005 501
25006 501
25007 501
25008 501
25009 501
25010 501
25011 501
25012 501
25013 501
25014 501
25015 501
25016 501
25017 501
25018 501
25019 501
25020 501
25021 501
25022 501
25023 501
25024 501
25025 501
25026 501
25027 501
25028 501
25029 501
25030 501
25031 501
25032 501
25033 501
25034 501
25035 501
25036 501
25037 501
25038 501
25039 501
25040 501
25041 501
25042 501
25043 501
25044 501
25045 501
25046 501
25047 501
25048 501
25049 501
25050 501
25051 502
25052 502
25053 502
25054 502
25055 502
25056 502
25057 502
25058 502
25059 502
25060 502
25061 502
25062 502
25063 502
25064 502
25065 502
25066 502
25067 502
25068 502
25069 502
25070 502
25071 502
25072 502
25073 502
25074 502
25075 502
25076 502
25077 502
25078 502
25079 502
25080 502
25081 502
25082 502
25083 502
25084 502
25085 502
25086 502
25087 502
25088 502
25089 502
25090 502
25091 502
25092 502
25093 502
25094 502
25095 502
25096 502
25097 502
25098 502
25099 502
25100 502
25101 503
25102 503
25103 503
25104 503
25105 503
25106 503
25107 503
25108 503
25109 503
25110 503
25111 503
25112 503
25113 503
25114 503
25115 503
25116 503
25117 503
25118 503
25119 503
25120 503
25121 503
25122 503
25123 503
25124 503
25125 503
25126 503
25127 503
25128 503
25129 503
25130 503
25131 503
25132 503
25133 503
25134 503
25135 503
25136 503
25137 503
25138 503
25139 503
25140 503
25141 503
25142 503
25143 503
25144 503
25145 503
25146 503
25147 503
25148 503
25149 503
25150 503
25151 504
25152 504
25153 504
25154 504
25155 504
25156 504
25157 504
25158 504
25159 504
25160 504
25161 504
25162 504
25163 504
25164 504
25165 504
25166 504
25167 504
25168 504
25169 504
25170 504
25171 504
25172 504
25173 504
25174 504
25175 504
25176 504
25177 504
25178 504
25179 504
25180 504
25181 504
25182 504
25183 504
25184 504
25185 504
25186 504
25187 504
25188 504
25189 504
25190 504
25191 504
25192 504
25193 504
25194 504
25195 504
25196 504
25197 504
25198 504
25199 504
25200 504
25201 505
25202 505
25203 505
25204 505
25205 505
25206 505
25207 505
25208 505
25209 505
25210 505
25211 505
25212 505
25213 505
25214 505
25215 505
25216 505
25217 505
25218 505
25219 505
25220 505
25221 505
25222 505
25223 505
25224 505
25225 505
25226 505
25227 505
25228 505
25229 505
25230 505
25231 505
25232 505
25233 505
25234 505
25235 505
25236 505
25237 505
25238 505
25239 505
25240 505
25241 505
25242 505
25243 505
25244 505
25245 505
25246 505
25247 505
25248 505
25249 505
25250 505
25251 506
25252 506
25253 506
25254 506
25255 506
25256 506
25257 506
25258 506
25259 506
25260 506
25261 506
25262 506
25263 506
25264 506
25265 506
25266 506
25267 506
25268 506
25269 506
25270 506
25271 506
25272 506
25273 506
25274 506
25275 506
25276 506
25277 506
25278 506
25279 506
25280 506
25281 506
25282 506
25283 506
25284 506
25285 506
25286 506
25287 506
25288 506
25289 506
25290 506
25291 506
25292 506
25293 506
25294 506
25295 506
25296 506
25297 506
25298 506
25299 506
25300 506
25301 507
25302 507
25303 507
25304 507
25305 507
25306 507
25307 507
25308 507
25309 507
25310 507
25311 507
25312 507
25313 507
25314 507
25315 507
25316 507
25317 507
25318 507
25319 507
25320 507
25321 507
25322 507
25323 507
25324 507
25325 507
25326 507
25327 507
25328 507
25329 507
25330 507
25331 507
25332 507
25333 507
25334 507
25335 507
25336 507
25337 507
25338 507
25339 507
25340 507
25341 507
25342 507
25343 507
25344 507
25345 507
25346 507
25347 507
25348 507
25349 507
25350 507
25351 508
25352 508
25353 508
25354 508
25355 508
25356 508
25357 508
25358 508
25359 508
25360 508
25361 508
25362 508
25363 508
25364 508
25365 508
25366 508
25367 508
25368 508
25369 508
25370 508
25371 508
25372 508
25373 508
25374 508
25375 508
25376 508
25377 508
25378 508
25379 508
25380 508
25381 508
25382 508
25383 508
25384 508
25385 508
25386 508
25387 508
25388 508
25389 508
25390 508
25391 508
25392 508
25393 508
25394 508
25395 508
25396 508
25397 508
25398 508
25399 508
25400 508
25401 509
25402 509
25403 509
25404 509
25405 509
25406 509
25407 509
25408 509
25409 509
25410 509
25411 509
25412 509
25413 509
25414 509
25415 509
25416 509
25417 509
25418 509
25419 509
25420 509
25421 509
25422 509
25423 509
25424 509
25425 509
25426 509
25427 509
25428 509
25429 509
25430 509
25431 509
25432 509
25433 509
25434 509
25435 509
25436 509
25437 509
25438 509
25439 509
25440 509
25441 509
25442 509
25443 509
25444 509
25445 509
25446 509
25447 509
25448 509
25449 509
25450 509
25451 510
25452 510
25453 510
25454 510
25455 510
25456 510
25457 510
25458 510
25459 510
25460 510
25461 510
25462 510
25463 510
25464 510
25465 510
25466 510
25467 510
25468 510
25469 510
25470 510
25471 510
25472 510
25473 510
25474 510
25475 510
25476 510
25477 510
25478 510
25479 510
25480 510
25481 510
25482 510
25483 510
25484 510
25485 510
25486 510
25487 510
25488 510
25489 510
25490 510
25491 510
25492 510
25493 510
25494 510
25495 510
25496 510
25497 510
25498 510
25499 510
25500 510
25501 511
25502 511
25503 511
25504 511
25505 511
25506 511
25507 511
25508 511
25509 511
25510 511
25511 511
25512 511
25513 511
25514 511
25515 511
25516 511
25517 511
25518 511
25519 511
25520 511
25521 511
25522 511
25523 511
25524 511
25525 511
25526 511
25527 511
25528 511
25529 511
25530 511
25531 511
25532 511
25533 511
25534 511
25535 511
25536 511
25537 511
25538 511
25539 511
25540 511
25541 511
25542 511
25543 511
25544 511
25545 511
25546 511
25547 511
25548 511
25549 511
25550 511
25551 512
25552 512
25553 512
25554 512
25555 512
25556 512
25557 512
25558 512
25559 512
25560 512
25561 512
25562 512
25563 512
25564 512
25565 512
25566 512
25567 512
25568 512
25569 512
25570 512
25571 512
25572 512
25573 512
25574 512
25575 512
25576 512
25577 512
25578 512
25579 512
25580 512
25581 512
25582 512
25583 512
25584 512
25585 512
25586 512
25587 512
25588 512
25589 512
25590 512
25591 512
25592 512
25593 512
25594 512
25595 512
25596 512
25597 512
25598 512
25599 512
25600 512
25601 513
25602 513
25603 513
25604 513
25605 513
25606 513
25607 513
25608 513
25609 513
25610 513
25611 513
25612 513
25613 513
25614 513
25615 513
25616 513
25617 513
25618 513
25619 513
25620 513
25621 513
25622 513
25623 513
25624 513
25625 513
25626 513
25627 513
25628 513
25629 513
25630 513
25631 513
25632 513
25633 513
25634 513
25635 513
25636 513
25637 513
25638 513
25639 513
25640 513
25641 513
25642 513
25643 513
25644 513
25645 513
25646 513
25647 513
25648 513
25649 513
25650 513
25651 514
25652 514
25653 514
25654 514
25655 514
25656 514
25657 514
25658 514
25659 514
25660 514
25661 514
25662 514
25663 514
25664 514
25665 514
25666 514
25667 514
25668 514
25669 514
25670 514
25671 514
25672 514
25673 514
25674 514
25675 514
25676 514
25677 514
25678 514
25679 514
25680 514
25681 514
25682 514
25683 514
25684 514
25685 514
25686 514
25687 514
25688 514
25689 514
25690 514
25691 514
25692 514
25693 514
25694 514
25695 514
25696 514
25697 514
25698 514
25699 514
25700 514
25701 515
25702 515
25703 515
25704 515
25705 515
25706 515
25707 515
25708 515
25709 515
25710 515
25711 515
25712 515
25713 515
25714 515
25715 515
25716 515
25717 515
25718 515
25719 515
25720 515
25721 515
25722 515
25723 515
25724 515
25725 515
25726 515
25727 515
25728 515
25729 515
25730 515
25731 515
25732 515
25733 515
25734 515
25735 515
25736 515
25737 515
25738 515
25739 515
25740 515
25741 515
25742 515
25743 515
25744 515
25745 515
25746 515
25747 515
25748 515
25749 515
25750 515
25751 516
25752 516
25753 516
25754 516
25755 516
25756 516
25757 516
25758 516
25759 516
25760 516
25761 516
25762 516
25763 516
25764 516
25765 516
25766 516
25767 516
25768 516
25769 516
25770 516
25771 516
25772 516
25773 516
25774 516
25775 516
25776 516
25777 516
25778 516
25779 516
25780 516
25781 516
25782 516
25783 516
25784 516
25785 516
25786 516
25787 516
25788 516
25789 516
25790 516
25791 516
25792 516
25793 516
25794 516
25795 516
25796 516
25797 516
25798 516
25799 516
25800 516
25801 517
25802 517
25803 517
25804 517
25805 517
25806 517
25807 517
25808 517
25809 517
25810 517
25811 517
25812 517
25813 517
25814 517
25815 517
25816 517
25817 517
25818 517
25819 517
25820 517
25821 517
25822 517
25823 517
25824 517
25825 517
25826 517
25827 517
25828 517
25829 517
25830 517
25831 517
25832 517
25833 517
25834 517
25835 517
25836 517
25837 517
25838 517
25839 517
25840 517
25841 517
25842 517
25843 517
25844 517
25845 517
25846 517
25847 517
25848 517
25849 517
25850 517
25851 518
25852 518
25853 518
25854 518
25855 518
25856 518
25857 518
25858 518
25859 518
25860 518
25861 518
25862 518
25863 518
25864 518
25865 518
25866 518
25867 518
25868 518
25869 518
25870 518
25871 518
25872 518
25873 518
25874 518
25875 518
25876 518
25877 518
25878 518
25879 518
25880 518
25881 518
25882 518
25883 518
25884 518
25885 518
25886 518
25887 518
25888 518
25889 518
25890 518
25891 518
25892 518
25893 518
25894 518
25895 518
25896 518
25897 518
25898 518
25899 518
25900 518
25901 519
25902 519
25903 519
25904 519
25905 519
25906 519
25907 519
25908 519
25909 519
25910 519
25911 519
25912 519
25913 519
25914 519
25915 519
25916 519
25917 519
25918 519
25919 519
25920 519
25921 519
25922 519
25923 519
25924 519
25925 519
25926 519
25927 519
25928 519
25929 519
25930 519
25931 519
25932 519
25933 519
25934 519
25935 519
25936 519
25937 519
25938 519
25939 519
25940 519
25941 519
25942 519
25943 519
25944 519
25945 519
25946 519
25947 519
25948 519
25949 519
25950 519
25951 520
25952 520
25953 520
25954 520
25955 520
25956 520
25957 520
25958 520
25959 520
25960 520
25961 520
25962 520
25963 520
25964 520
25965 520
25966 520
25967 520
25968 520
25969 520
25970 520
25971 520
25972 520
25973 520
25974 520
25975 520
25976 520
25977 520
25978 520
25979 520
25980 520
25981 520
25982 520
25983 520
25984 520
25985 520
25986 520
25987 520
25988 520
25989 520
25990 520
25991 520
25992 520
25993 520
25994 520
25995 520
25996 520
25997 520
25998 520
25999 520
26000 520
26001 521
26002 521
26003 521
26004 521
26005 521
26006 521
26007 521
26008 521
26009 521
26010 521
26011 521
26012 521
26013 521
26014 521
26015 521
26016 521
26017 521
26018 521
26019 521
26020 521
26021 521
26022 521
26023 521
26024 521
26025 521
26026 521
26027 521
26028 521
26029 521
26030 521
26031 521
26032 521
26033 521
26034 521
26035 521
26036 521
26037 521
26038 521
26039 521
26040 521
26041 521
26042 521
26043 521
26044 521
26045 521
26046 521
26047 521
26048 521
26049 521
26050 521
26051 522
26052 522
26053 522
26054 522
26055 522
26056 522
26057 522
26058 522
26059 522
26060 522
26061 522
26062 522
26063 522
26064 522
26065 522
26066 522
26067 522
26068 522
26069 522
26070 522
26071 522
26072 522
26073 522
26074 522
26075 522
26076 522
26077 522
26078 522
26079 522
26080 522
26081 522
26082 522
26083 522
26084 522
26085 522
26086 522
26087 522
26088 522
26089 522
26090 522
26091 522
26092 522
26093 522
26094 522
26095 522
26096 522
26097 522
26098 522
26099 522
26100 522
26101 523
26102 523
26103 523
26104 523
26105 523
26106 523
26107 523
26108 523
26109 523
26110 523
26111 523
26112 523
26113 523
26114 523
26115 523
26116 523
26117 523
26118 523
26119 523
26120 523
26121 523
26122 523
26123 523
26124 523
26125 523
26126 523
26127 523
26128 523
26129 523
26130 523
26131 523
26132 523
26133 523
26134 523
26135 523
26136 523
26137 523
26138 523
26139 523
26140 523
26141 523
26142 523
26143 523
26144 523
26145 523
26146 523
26147 523
26148 523
26149 523
26150 523
26151 524
26152 524
26153 524
26154 524
26155 524
26156 524
26157 524
26158 524
26159 524
26160 524
26161 524
26162 524
26163 524
26164 524
26165 524
26166 524
26167 524
26168 524
26169 524
26170 524
26171 524
26172 524
26173 524
26174 524
26175 524
26176 524
26177 524
26178 524
26179 524
26180 524
26181 524
26182 524
26183 524
26184 524
26185 524
26186 524
26187 524
26188 524
26189 524
26190 524
26191 524
26192 524
26193 524
26194 524
26195 524
26196 524
26197 524
26198 524
26199 524
26200 524
26201 525
26202 525
26203 525
26204 525
26205 525
26206 525
26207 525
26208 525
26209 525
26210 525
26211 525
26212 525
26213 525
26214 525
26215 525
26216 525
26217 525
26218 525
26219 525
26220 525
26221 525
26222 525
26223 525
26224 525
26225 525
26226 525
26227 525
26228 525
26229 525
26230 525
26231 525
26232 525
26233 525
26234 525
26235 525
26236 525
26237 525
26238 525
26239 525
26240 525
26241 525
26242 525
26243 525
26244 525
26245 525
26246 525
26247 525
26248 525
26249 525
26250 525
26251 526
26252 526
26253 526
26254 526
26255 526
26256 526
26257 526
26258 526
26259 526
26260 526
26261 526
26262 526
26263 526
26264 526
26265 526
26266 526
26267 526
26268 526
26269 526
26270 526
26271 526
26272 526
26273 526
26274 526
26275 526
26276 526
26277 526
26278 526
26279 526
26280 526
26281 526
26282 526
26283 526
26284 526
26285 526
26286 526
26287 526
26288 526
26289 526
26290 526
26291 526
26292 526
26293 526
26294 526
26295 526
26296 526
26297 526
26298 526
26299 526
26300 526
26301 527
26302 527
26303 527
26304 527
26305 527
26306 527
26307 527
26308 527
26309 527
26310 527
26311 527
26312 527
26313 527
26314 527
26315 527
26316 527
26317 527
26318 527
26319 527
26320 527
26321 527
26322 527
26323 527
26324 527
26325 527
26326 527
26327 527
26328 527
26329 527
26330 527
26331 527
26332 527
26333 527
26334 527
26335 527
26336 527
26337 527
26338 527
26339 527
26340 527
26341 527
26342 527
26343 527
26344 527
26345 527
26346 527
26347 527
26348 527
26349 527
26350 527
26351 528
26352 528
26353 528
26354 528
26355 528
26356 528
26357 528
26358 528
26359 528
26360 528
26361 528
26362 528
26363 528
26364 528
26365 528
26366 528
26367 528
26368 528
26369 528
26370 528
26371 528
26372 528
26373 528
26374 528
26375 528
26376 528
26377 528
26378 528
26379 528
26380 528
26381 528
26382 528
26383 528
26384 528
26385 528
26386 528
26387 528
26388 528
26389 528
26390 528
26391 528
26392 528
26393 528
26394 528
26395 528
26396 528
26397 528
26398 528
26399 528
26400 528
26401 529
26402 529
26403 529
26404 529
26405 529
26406 529
26407 529
26408 529
26409 529
26410 529
26411 529
26412 529
26413 529
26414 529
26415 529
26416 529
26417 529
26418 529
26419 529
26420 529
26421 529
26422 529
26423 529
26424 529
26425 529
26426 529
26427 529
26428 529
26429 529
26430 529
26431 529
26432 529
26433 529
26434 529
26435 529
26436 529
26437 529
26438 529
26439 529
26440 529
26441 529
26442 529
26443 529
26444 529
26445 529
26446 529
26447 529
26448 529
26449 529
26450 529
26451 530
26452 530
26453 530
26454 530
26455 530
26456 530
26457 530
26458 530
26459 530
26460 530
26461 530
26462 530
26463 530
26464 530
26465 530
26466 530
26467 530
26468 530
26469 530
26470 530
26471 530
26472 530
26473 530
26474 530
26475 530
26476 530
26477 530
26478 530
26479 530
26480 530
26481 530
26482 530
26483 530
26484 530
26485 530
26486 530
26487 530
26488 530
26489 530
26490 530
26491 530
26492 530
26493 530
26494 530
26495 530
26496 530
26497 530
26498 530
26499 530
26500 530
26501 531
26502 531
26503 531
26504 531
26505 531
26506 531
26507 531
26508 531
26509 531
26510 531
26511 531
26512 531
26513 531
26514 531
26515 531
26516 531
26517 531
26518 531
26519 531
26520 531
26521 531
26522 531
26523 531
26524 531
26525 531
26526 531
26527 531
26528 531
26529 531
26530 531
26531 531
26532 531
26533 531
26534 531
26535 531
26536 531
26537 531
26538 531
26539 531
26540 531
26541 531
26542 531
26543 531
26544 531
26545 531
26546 531
26547 531
26548 531
26549 531
26550 531
26551 532
26552 532
26553 532
26554 532
26555 532
26556 532
26557 532
26558 532
26559 532
26560 532
26561 532
26562 532
26563 532
26564 532
26565 532
26566 532
26567 532
26568 532
26569 532
26570 532
26571 532
26572 532
26573 532
26574 532
26575 532
26576 532
26577 532
26578 532
26579 532
26580 532
26581 532
26582 532
26583 532
26584 532
26585 532
26586 532
26587 532
26588 532
26589 532
26590 532
26591 532
26592 532
26593 532
26594 532
26595 532
26596 532
26597 532
26598 532
26599 532
26600 532
26601 533
26602 533
26603 533
26604 533
26605 533
26606 533
26607 533
26608 533
26609 533
26610 533
26611 533
26612 533
26613 533
26614 533
26615 533
26616 533
26617 533
26618 533
26619 533
26620 533
26621 533
26622 533
26623 533
26624 533
26625 533
26626 533
26627 533
26628 533
26629 533
26630 533
26631 533
26632 533
26633 533
26634 533
26635 533
26636 533
26637 533
26638 533
26639 533
26640 533
26641 533
26642 533
26643 533
26644 533
26645 533
26646 533
26647 533
26648 533
26649 533
26650 533
26651 534
26652 534
26653 534
26654 534
26655 534
26656 534
26657 534
26658 534
26659 534
26660 534
26661 534
26662 534
26663 534
26664 534
26665 534
26666 534
26667 534
26668 534
26669 534
26670 534
26671 534
26672 534
26673 534
26674 534
26675 534
26676 534
26677 534
26678 534
26679 534
26680 534
26681 534
26682 534
26683 534
26684 534
26685 534
26686 534
26687 534
26688 534
26689 534
26690 534
26691 534
26692 534
26693 534
26694 534
26695 534
26696 534
26697 534
26698 534
26699 534
26700 534
26701 535
26702 535
26703 535
26704 535
26705 535
26706 535
26707 535
26708 535
26709 535
26710 535
26711 535
26712 535
26713 535
26714 535
26715 535
26716 535
26717 535
26718 535
26719 535
26720 535
26721 535
26722 535
26723 535
26724 535
26725 535
26726 535
26727 535
26728 535
26729 535
26730 535
26731 535
26732 535
26733 535
26734 535
26735 535
26736 535
26737 535
26738 535
26739 535
26740 535
26741 535
26742 535
26743 535
26744 535
26745 535
26746 535
26747 535
26748 535
26749 535
26750 535
26751 536
26752 536
26753 536
26754 536
26755 536
26756 536
26757 536
26758 536
26759 536
26760 536
26761 536
26762 536
26763 536
26764 536
26765 536
26766 536
26767 536
26768 536
26769 536
26770 536
26771 536
26772 536
26773 536
26774 536
26775 536
26776 536
26777 536
26778 536
26779 536
26780 536
26781 536
26782 536
26783 536
26784 536
26785 536
26786 536
26787 536
26788 536
26789 536
26790 536
26791 536
26792 536
26793 536
26794 536
26795 536
26796 536
26797 536
26798 536
26799 536
26800 536
26801 537
26802 537
26803 537
26804 537
26805 537
26806 537
26807 537
26808 537
26809 537
26810 537
26811 537
26812 537
26813 537
26814 537
26815 537
26816 537
26817 537
26818 537
26819 537
26820 537
26821 537
26822 537
26823 537
26824 537
26825 537
26826 537
26827 537
26828 537
26829 537
26830 537
26831 537
26832 537
26833 537
26834 537
26835 537
26836 537
26837 537
26838 537
26839 537
26840 537
26841 537
26842 537
26843 537
26844 537
26845 537
26846 537
26847 537
26848 537
26849 537
26850 537
26851 538
26852 538
26853 538
26854 538
26855 538
26856 538
26857 538
26858 538
26859 538
26860 538
26861 538
26862 538
26863 538
26864 538
26865 538
26866 538
26867 538
26868 538
26869 538
26870 538
26871 538
26872 538
26873 538
26874 538
26875 538
26876 538
26877 538
26878 538
26879 538
26880 538
26881 538
26882 538
26883 538
26884 538
26885 538
26886 538
26887 538
26888 538
26889 538
26890 538
26891 538
26892 538
26893 538
26894 538
26895 538
26896 538
26897 538
26898 538
26899 538
26900 538
26901 539
26902 539
26903 539
26904 539
26905 539
26906 539
26907 539
26908 539
26909 539
26910 539
26911 539
26912 539
26913 539
26914 539
26915 539
26916 539
26917 539
26918 539
26919 539
26920 539
26921 539
26922 539
26923 539
26924 539
26925 539
26926 539
26927 539
26928 539
26929 539
26930 539
26931 539
26932 539
26933 539
26934 539
26935 539
26936 539
26937 539
26938 539
26939 539
26940 539
26941 539
26942 539
26943 539
26944 539
26945 539
26946 539
26947 539
26948 539
26949 539
26950 539
26951 540
26952 540
26953 540
26954 540
26955 540
26956 540
26957 540
26958 540
26959 540
26960 540
26961 540
26962 540
26963 540
26964 540
26965 540
26966 540
26967 540
26968 540
26969 540
26970 540
26971 540
26972 540
26973 540
26974 540
26975 540
26976 540
26977 540
26978 540
26979 540
26980 540
26981 540
26982 540
26983 540
26984 540
26985 540
26986 540
26987 540
26988 540
26989 540
26990 540
26991 540
26992 540
26993 540
26994 540
26995 540
26996 540
26997 540
26998 540
26999 540
27000 540
27001 541
27002 541
27003 541
27004 541
27005 541
27006 541
27007 541
27008 541
27009 541
27010 541
27011 541
27012 541
27013 541
27014 541
27015 541
27016 541
27017 541
27018 541
27019 541
27020 541
27021 541
27022 541
27023 541
27024 541
27025 541
27026 541
27027 541
27028 541
27029 541
27030 541
27031 541
27032 541
27033 541
27034 541
27035 541
27036 541
27037 541
27038 541
27039 541
27040 541
27041 541
27042 541
27043 541
27044 541
27045 541
27046 541
27047 541
27048 541
27049 541
27050 541
27051 542
27052 542
27053 542
27054 542
27055 542
27056 542
27057 542
27058 542
27059 542
27060 542
27061 542
27062 542
27063 542
27064 542
27065 542
27066 542
27067 542
27068 542
27069 542
27070 542
27071 542
27072 542
27073 542
27074 542
27075 542
27076 542
27077 542
27078 542
27079 542
27080 542
27081 542
27082 542
27083 542
27084 542
27085 542
27086 542
27087 542
27088 542
27089 542
27090 542
27091 542
27092 542
27093 542
27094 542
27095 542
27096 542
27097 542
27098 542
27099 542
27100 542
27101 543
27102 543
27103 543
27104 543
27105 543
27106 543
27107 543
27108 543
27109 543
27110 543
27111 543
27112 543
27113 543
27114 543
27115 543
27116 543
27117 543
27118 543
27119 543
27120 543
27121 543
27122 543
27123 543
27124 543
27125 543
27126 543
27127 543
27128 543
27129 543
27130 543
27131 543
27132 543
27133 543
27134 543
27135 543
27136 543
27137 543
27138 543
27139 543
27140 543
27141 543
27142 543
27143 543
27144 543
27145 543
27146 543
27147 543
27148 543
27149 543
27150 543
27151 544
27152 544
27153 544
27154 544
27155 544
27156 544
27157 544
27158 544
27159 544
27160 544
27161 544
27162 544
27163 544
27164 544
27165 544
27166 544
27167 544
27168 544
27169 544
27170 544
27171 544
27172 544
27173 544
27174 544
27175 544
27176 544
27177 544
27178 544
27179 544
27180 544
27181 544
27182 544
27183 544
27184 544
27185 544
27186 544
27187 544
27188 544
27189 544
27190 544
27191 544
27192 544
27193 544
27194 544
27195 544
27196 544
27197 544
27198 544
27199 544
27200 544
27201 545
27202 545
27203 545
27204 545
27205 545
27206 545
27207 545
27208 545
27209 545
27210 545
27211 545
27212 545
27213 545
27214 545
27215 545
27216 545
27217 545
27218 545
27219 545
27220 545
27221 545
27222 545
27223 545
27224 545
27225 545
27226 545
27227 545
27228 545
27229 545
27230 545
27231 545
27232 545
27233 545
27234 545
27235 545
27236 545
27237 545
27238 545
27239 545
27240 545
27241 545
27242 545
27243 545
27244 545
27245 545
27246 545
27247 545
27248 545
27249 545
27250 545
27251 546
27252 546
27253 546
27254 546
27255 546
27256 546
27257 546
27258 546
27259 546
27260 546
27261 546
27262 546
27263 546
27264 546
27265 546
27266 546
27267 546
27268 546
27269 546
27270 546
27271 546
27272 546
27273 546
27274 546
27275 546
27276 546
27277 546
27278 546
27279 546
27280 546
27281 546
27282 546
27283 546
27284 546
27285 546
27286 546
27287 546
27288 546
27289 546
27290 546
27291 546
27292 546
27293 546
27294 546
27295 546
27296 546
27297 546
27298 546
27299 546
27300 546
27301 547
27302 547
27303 547
27304 547
27305 547
27306 547
27307 547
27308 547
27309 547
27310 547
27311 547
27312 547
27313 547
27314 547
27315 547
27316 547
27317 547
27318 547
27319 547
27320 547
27321 547
27322 547
27323 547
27324 547
27325 547
27326 547
27327 547
27328 547
27329 547
27330 547
27331 547
27332 547
27333 547
27334 547
27335 547
27336 547
27337 547
27338 547
27339 547
27340 547
27341 547
27342 547
27343 547
27344 547
27345 547
27346 547
27347 547
27348 547
27349 547
27350 547
27351 548
27352 548
27353 548
27354 548
27355 548
27356 548
27357 548
27358 548
27359 548
27360 548
27361 548
27362 548
27363 548
27364 548
27365 548
27366 548
27367 548
27368 548
27369 548
27370 548
27371 548
27372 548
27373 548
27374 548
27375 548
27376 548
27377 548
27378 548
27379 548
27380 548
27381 548
27382 548
27383 548
27384 548
27385 548
27386 548
27387 548
27388 548
27389 548
27390 548
27391 548
27392 548
27393 548
27394 548
27395 548
27396 548
27397 548
27398 548
27399 548
27400 548
27401 549
27402 549
27403 549
27404 549
27405 549
27406 549
27407 549
27408 549
27409 549
27410 549
27411 549
27412 549
27413 549
27414 549
27415 549
27416 549
27417 549
27418 549
27419 549
27420 549
27421 549
27422 549
27423 549
27424 549
27425 549
27426 549
27427 549
27428 549
27429 549
27430 549
27431 549
27432 549
27433 549
27434 549
27435 549
27436 549
27437 549
27438 549
27439 549
27440 549
27441 549
27442 549
27443 549
27444 549
27445 549
27446 549
27447 549
27448 549
27449 549
27450 549
27451 550
27452 550
27453 550
27454 550
27455 550
27456 550
27457 550
27458 550
27459 550
27460 550
27461 550
27462 550
27463 550
27464 550
27465 550
27466 550
27467 550
27468 550
27469 550
27470 550
27471 550
27472 550
27473 550
27474 550
27475 550
27476 550
27477 550
27478 550
27479 550
27480 550
27481 550
27482 550
27483 550
27484 550
27485 550
27486 550
27487 550
27488 550
27489 550
27490 550
27491 550
27492 550
27493 550
27494 550
27495 550
27496 550
27497 550
27498 550
27499 550
27500 550
27501 551
27502 551
27503 551
27504 551
27505 551
27506 551
27507 551
27508 551
27509 551
27510 551
27511 551
27512 551
27513 551
27514 551
27515 551
27516 551
27517 551
27518 551
27519 551
27520 551
27521 551
27522 551
27523 551
27524 551
27525 551
27526 551
27527 551
27528 551
27529 551
27530 551
27531 551
27532 551
27533 551
27534 551
27535 551
27536 551
27537 551
27538 551
27539 551
27540 551
27541 551
27542 551
27543 551
27544 551
27545 551
27546 551
27547 551
27548 551
27549 551
27550 551
27551 552
27552 552
27553 552
27554 552
27555 552
27556 552
27557 552
27558 552
27559 552
27560 552
27561 552
27562 552
27563 552
27564 552
27565 552
27566 552
27567 552
27568 552
27569 552
27570 552
27571 552
27572 552
27573 552
27574 552
27575 552
27576 552
27577 552
27578 552
27579 552
27580 552
27581 552
27582 552
27583 552
27584 552
27585 552
27586 552
27587 552
27588 552
27589 552
27590 552
27591 552
27592 552
27593 552
27594 552
27595 552
27596 552
27597 552
27598 552
27599 552
27600 552
27601 553
27602 553
27603 553
27604 553
27605 553
27606 553
27607 553
27608 553
27609 553
27610 553
27611 553
27612 553
27613 553
27614 553
27615 553
27616 553
27617 553
27618 553
27619 553
27620 553
27621 553
27622 553
27623 553
27624 553
27625 553
27626 553
27627 553
27628 553
27629 553
27630 553
27631 553
27632 553
27633 553
27634 553
27635 553
27636 553
27637 553
27638 553
27639 553
27640 553
27641 553
27642 553
27643 553
27644 553
27645 553
27646 553
27647 553
27648 553
27649 553
27650 553
27651 554
27652 554
27653 554
27654 554
27655 554
27656 554
27657 554
27658 554
27659 554
27660 554
27661 554
27662 554
27663 554
27664 554
27665 554
27666 554
27667 554
27668 554
27669 554
27670 554
27671 554
27672 554
27673 554
27674 554
27675 554
27676 554
27677 554
27678 554
27679 554
27680 554
27681 554
27682 554
27683 554
27684 554
27685 554
27686 554
27687 554
27688 554
27689 554
27690 554
27691 554
27692 554
27693 554
27694 554
27695 554
27696 554
27697 554
27698 554
27699 554
27700 554
27701 555
27702 555
27703 555
27704 555
27705 555
27706 555
27707 555
27708 555
27709 555
27710 555
27711 555
27712 555
27713 555
27714 555
27715 555
27716 555
27717 555
27718 555
27719 555
27720 555
27721 555
27722 555
27723 555
27724 555
27725 555
27726 555
27727 555
27728 555
27729 555
27730 555
27731 555
27732 555
27733 555
27734 555
27735 555
27736 555
27737 555
27738 555
27739 555
27740 555
27741 555
27742 555
27743 555
27744 555
27745 555
27746 555
27747 555
27748 555
27749 555
27750 555
27751 556
27752 556
27753 556
27754 556
27755 556
27756 556
27757 556
27758 556
27759 556
27760 556
27761 556
27762 556
27763 556
27764 556
27765 556
27766 556
27767 556
27768 556
27769 556
27770 556
27771 556
27772 556
27773 556
27774 556
27775 556
27776 556
27777 556
27778 556
27779 556
27780 556
27781 556
27782 556
27783 556
27784 556
27785 556
27786 556
27787 556
27788 556
27789 556
27790 556
27791 556
27792 556
27793 556
27794 556
27795 556
27796 556
27797 556
27798 556
27799 556
27800 556
27801 557
27802 557
27803 557
27804 557
27805 557
27806 557
27807 557
27808 557
27809 557
27810 557
27811 557
27812 557
27813 557
27814 557
27815 557
27816 557
27817 557
27818 557
27819 557
27820 557
27821 557
27822 557
27823 557
27824 557
27825 557
27826 557
27827 557
27828 557
27829 557
27830 557
27831 557
27832 557
27833 557
27834 557
27835 557
27836 557
27837 557
27838 557
27839 557
27840 557
27841 557
27842 557
27843 557
27844 557
27845 557
27846 557
27847 557
27848 557
27849 557
27850 557
27851 558
27852 558
27853 558
27854 558
27855 558
27856 558
27857 558
27858 558
27859 558
27860 558
27861 558
27862 558
27863 558
27864 558
27865 558
27866 558
27867 558
27868 558
27869 558
27870 558
27871 558
27872 558
27873 558
27874 558
27875 558
27876 558
27877 558
27878 558
27879 558
27880 558
27881 558
27882 558
27883 558
27884 558
27885 558
27886 558
27887 558
27888 558
27889 558
27890 558
27891 558
27892 558
27893 558
27894 558
27895 558
27896 558
27897 558
27898 558
27899 558
27900 558
27901 559
27902 559
27903 559
27904 559
27905 559
27906 559
27907 559
27908 559
27909 559
27910 559
27911 559
27912 559
27913 559
27914 559
27915 559
27916 559
27917 559
27918 559
27919 559
27920 559
27921 559
27922 559
27923 559
27924 559
27925 559
27926 559
27927 559
27928 559
27929 559
27930 559
27931 559
27932 559
27933 559
27934 559
27935 559
27936 559
27937 559
27938 559
27939 559
27940 559
27941 559
27942 559
27943 559
27944 559
27945 559
27946 559
27947 559
27948 559
27949 559
27950 559
27951 560
27952 560
27953 560
27954 560
27955 560
27956 560
27957 560
27958 560
27959 560
27960 560
27961 560
27962 560
27963 560
27964 560
27965 560
27966 560
27967 560
27968 560
27969 560
27970 560
27971 560
27972 560
27973 560
27974 560
27975 560
27976 560
27977 560
27978 560
27979 560
27980 560
27981 560
27982 560
27983 560
27984 560
27985 560
27986 560
27987 560
27988 560
27989 560
27990 560
27991 560
27992 560
27993 560
27994 560
27995 560
27996 560
27997 560
27998 560
27999 560
28000 560
28001 561
28002 561
28003 561
28004 561
28005 561
28006 561
28007 561
28008 561
28009 561
28010 561
28011 561
28012 561
28013 561
28014 561
28015 561
28016 561
28017 561
28018 561
28019 561
28020 561
28021 561
28022 561
28023 561
28024 561
28025 561
28026 561
28027 561
28028 561
28029 561
28030 561
28031 561
28032 561
28033 561
28034 561
28035 561
28036 561
28037 561
28038 561
28039 561
28040 561
28041 561
28042 561
28043 561
28044 561
28045 561
28046 561
28047 561
28048 561
28049 561
28050 561
28051 562
28052 562
28053 562
28054 562
28055 562
28056 562
28057 562
28058 562
28059 562
28060 562
28061 562
28062 562
28063 562
28064 562
28065 562
28066 562
28067 562
28068 562
28069 562
28070 562
28071 562
28072 562
28073 562
28074 562
28075 562
28076 562
28077 562
28078 562
28079 562
28080 562
28081 562
28082 562
28083 562
28084 562
28085 562
28086 562
28087 562
28088 562
28089 562
28090 562
28091 562
28092 562
28093 562
28094 562
28095 562
28096 562
28097 562
28098 562
28099 562
28100 562
28101 563
28102 563
28103 563
28104 563
28105 563
28106 563
28107 563
28108 563
28109 563
28110 563
28111 563
28112 563
28113 563
28114 563
28115 563
28116 563
28117 563
28118 563
28119 563
28120 563
28121 563
28122 563
28123 563
28124 563
28125 563
28126 563
28127 563
28128 563
28129 563
28130 563
28131 563
28132 563
28133 563
28134 563
28135 563
28136 563
28137 563
28138 563
28139 563
28140 563
28141 563
28142 563
28143 563
28144 563
28145 563
28146 563
28147 563
28148 563
28149 563
28150 563
28151 564
28152 564
28153 564
28154 564
28155 564
28156 564
28157 564
28158 564
28159 564
28160 564
28161 564
28162 564
28163 564
28164 564
28165 564
28166 564
28167 564
28168 564
28169 564
28170 564
28171 564
28172 564
28173 564
28174 564
28175 564
28176 564
28177 564
28178 564
28179 564
28180 564
28181 564
28182 564
28183 564
28184 564
28185 564
28186 564
28187 564
28188 564
28189 564
28190 564
28191 564
28192 564
28193 564
28194 564
28195 564
28196 564
28197 564
28198 564
28199 564
28200 564
28201 565
28202 565
28203 565
28204 565
28205 565
28206 565
28207 565
28208 565
28209 565
28210 565
28211 565
28212 565
28213 565
28214 565
28215 565
28216 565
28217 565
28218 565
28219 565
28220 565
28221 565
28222 565
28223 565
28224 565
28225 565
28226 565
28227 565
28228 565
28229 565
28230 565
28231 565
28232 565
28233 565
28234 565
28235 565
28236 565
28237 565
28238 565
28239 565
28240 565
28241 565
28242 565
28243 565
28244 565
28245 565
28246 565
28247 565
28248 565
28249 565
28250 565
28251 566
28252 566
28253 566
28254 566
28255 566
28256 566
28257 566
28258 566
28259 566
28260 566
28261 566
28262 566
28263 566
28264 566
28265 566
28266 566
28267 566
28268 566
28269 566
28270 566
28271 566
28272 566
28273 566
28274 566
28275 566
28276 566
28277 566
28278 566
28279 566
28280 566
28281 566
28282 566
28283 566
28284 566
28285 566
28286 566
28287 566
28288 566
28289 566
28290 566
28291 566
28292 566
28293 566
28294 566
28295 566
28296 566
28297 566
28298 566
28299 566
28300 566
28301 567
28302 567
28303 567
28304 567
28305 567
28306 567
28307 567
28308 567
28309 567
28310 567
28311 567
28312 567
28313 567
28314 567
28315 567
28316 567
28317 567
28318 567
28319 567
28320 567
28321 567
28322 567
28323 567
28324 567
28325 567
28326 567
28327 567
28328 567
28329 567
28330 567
28331 567
28332 567
28333 567
28334 567
28335 567
28336 567
28337 567
28338 567
28339 567
28340 567
28341 567
28342 567
28343 567
28344 567
28345 567
28346 567
28347 567
28348 567
28349 567
28350 567
28351 568
28352 568
28353 568
28354 568
28355 568
28356 568
28357 568
28358 568
28359 568
28360 568
28361 568
28362 568
28363 568
28364 568
28365 568
28366 568
28367 568
28368 568
28369 568
28370 568
28371 568
28372 568
28373 568
28374 568
28375 568
28376 568
28377 568
28378 568
28379 568
28380 568
28381 568
28382 568
28383 568
28384 568
28385 568
28386 568
28387 568
28388 568
28389 568
28390 568
28391 568
28392 568
28393 568
28394 568
28395 568
28396 568
28397 568
28398 568
28399 568
28400 568
28401 569
28402 569
28403 569
28404 569
28405 569
28406 569
28407 569
28408 569
28409 569
28410 569
28411 569
28412 569
28413 569
28414 569
28415 569
28416 569
28417 569
28418 569
28419 569
28420 569
28421 569
28422 569
28423 569
28424 569
28425 569
28426 569
28427 569
28428 569
28429 569
28430 569
28431 569
28432 569
28433 569
28434 569
28435 569
28436 569
28437 569
28438 569
28439 569
28440 569
28441 569
28442 569
28443 569
28444 569
28445 569
28446 569
28447 569
28448 569
28449 569
28450 569
28451 570
28452 570
28453 570
28454 570
28455 570
28456 570
28457 570
28458 570
28459 570
28460 570
28461 570
28462 570
28463 570
28464 570
28465 570
28466 570
28467 570
28468 570
28469 570
28470 570
28471 570
28472 570
28473 570
28474 570
28475 570
28476 570
28477 570
28478 570
28479 570
28480 570
28481 570
28482 570
28483 570
28484 570
28485 570
28486 570
28487 570
28488 570
28489 570
28490 570
28491 570
28492 570
28493 570
28494 570
28495 570
28496 570
28497 570
28498 570
28499 570
28500 570
28501 571
28502 571
28503 571
28504 571
28505 571
28506 571
28507 571
28508 571
28509 571
28510 571
28511 571
28512 571
28513 571
28514 571
28515 571
28516 571
28517 571
28518 571
28519 571
28520 571
28521 571
28522 571
28523 571
28524 571
28525 571
28526 571
28527 571
28528 571
28529 571
28530 571
28531 571
28532 571
28533 571
28534 571
28535 571
28536 571
28537 571
28538 571
28539 571
28540 571
28541 571
28542 571
28543 571
28544 571
28545 571
28546 571
28547 571
28548 571
28549 571
28550 571
28551 572
28552 572
28553 572
28554 572
28555 572
28556 572
28557 572
28558 572
28559 572
28560 572
28561 572
28562 572
28563 572
28564 572
28565 572
28566 572
28567 572
28568 572
28569 572
28570 572
28571 572
28572 572
28573 572
28574 572
28575 572
28576 572
28577 572
28578 572
28579 572
28580 572
28581 572
28582 572
28583 572
28584 572
28585 572
28586 572
28587 572
28588 572
28589 572
28590 572
28591 572
28592 572
28593 572
28594 572
28595 572
28596 572
28597 572
28598 572
28599 572
28600 572
28601 573
28602 573
28603 573
28604 573
28605 573
28606 573
28607 573
28608 573
28609 573
28610 573
28611 573
28612 573
28613 573
28614 573
28615 573
28616 573
28617 573
28618 573
28619 573
28620 573
28621 573
28622 573
28623 573
28624 573
28625 573
28626 573
28627 573
28628 573
28629 573
28630 573
28631 573
28632 573
28633 573
28634 573
28635 573
28636 573
28637 573
28638 573
28639 573
28640 573
28641 573
28642 573
28643 573
28644 573
28645 573
28646 573
28647 573
28648 573
28649 573
28650 573
28651 574
28652 574
28653 574
28654 574
28655 574
28656 574
28657 574
28658 574
28659 574
28660 574
28661 574
28662 574
28663 574
28664 574
28665 574
28666 574
28667 574
28668 574
28669 574
28670 574
28671 574
28672 574
28673 574
28674 574
28675 574
28676 574
28677 574
28678 574
28679 574
28680 574
28681 574
28682 574
28683 574
28684 574
28685 574
28686 574
28687 574
28688 574
28689 574
28690 574
28691 574
28692 574
28693 574
28694 574
28695 574
28696 574
28697 574
28698 574
28699 574
28700 574
28701 575
28702 575
28703 575
28704 575
28705 575
28706 575
28707 575
28708 575
28709 575
28710 575
28711 575
28712 575
28713 575
28714 575
28715 575
28716 575
28717 575
28718 575
28719 575
28720 575
28721 575
28722 575
28723 575
28724 575
28725 575
28726 575
28727 575
28728 575
28729 575
28730 575
28731 575
28732 575
28733 575
28734 575
28735 575
28736 575
28737 575
28738 575
28739 575
28740 575
28741 575
28742 575
28743 575
28744 575
28745 575
28746 575
28747 575
28748 575
28749 575
28750 575
28751 576
28752 576
28753 576
28754 576
28755 576
28756 576
28757 576
28758 576
28759 576
28760 576
28761 576
28762 576
28763 576
28764 576
28765 576
28766 576
28767 576
28768 576
28769 576
28770 576
28771 576
28772 576
28773 576
28774 576
28775 576
28776 576
28777 576
28778 576
28779 576
28780 576
28781 576
28782 576
28783 576
28784 576
28785 576
28786 576
28787 576
28788 576
28789 576
28790 576
28791 576
28792 576
28793 576
28794 576
28795 576
28796 576
28797 576
28798 576
28799 576
28800 576
28801 577
28802 577
28803 577
28804 577
28805 577
28806 577
28807 577
28808 577
28809 577
28810 577
28811 577
28812 577
28813 577
28814 577
28815 577
28816 577
28817 577
28818 577
28819 577
28820 577
28821 577
28822 577
28823 577
28824 577
28825 577
28826 577
28827 577
28828 577
28829 577
28830 577
28831 577
28832 577
28833 577
28834 577
28835 577
28836 577
28837 577
28838 577
28839 577
28840 577
28841 577
28842 577
28843 577
28844 577
28845 577
28846 577
28847 577
28848 577
28849 577
28850 577
28851 578
28852 578
28853 578
28854 578
28855 578
28856 578
28857 578
28858 578
28859 578
28860 578
28861 578
28862 578
28863 578
28864 578
28865 578
28866 578
28867 578
28868 578
28869 578
28870 578
28871 578
28872 578
28873 578
28874 578
28875 578
28876 578
28877 578
28878 578
28879 578
28880 578
28881 578
28882 578
28883 578
28884 578
28885 578
28886 578
28887 578
28888 578
28889 578
28890 578
28891 578
28892 578
28893 578
28894 578
28895 578
28896 578
28897 578
28898 578
28899 578
28900 578
28901 579
28902 579
28903 579
28904 579
28905 579
28906 579
28907 579
28908 579
28909 579
28910 579
28911 579
28912 579
28913 579
28914 579
28915 579
28916 579
28917 579
28918 579
28919 579
28920 579
28921 579
28922 579
28923 579
28924 579
28925 579
28926 579
28927 579
28928 579
28929 579
28930 579
28931 579
28932 579
28933 579
28934 579
28935 579
28936 579
28937 579
28938 579
28939 579
28940 579
28941 579
28942 579
28943 579
28944 579
28945 579
28946 579
28947 579
28948 579
28949 579
28950 579
28951 580
28952 580
28953 580
28954 580
28955 580
28956 580
28957 580
28958 580
28959 580
28960 580
28961 580
28962 580
28963 580
28964 580
28965 580
28966 580
28967 580
28968 580
28969 580
28970 580
28971 580
28972 580
28973 580
28974 580
28975 580
28976 580
28977 580
28978 580
28979 580
28980 580
28981 580
28982 580
28983 580
28984 580
28985 580
28986 580
28987 580
28988 580
28989 580
28990 580
28991 580
28992 580
28993 580
28994 580
28995 580
28996 580
28997 580
28998 580
28999 580
29000 580
29001 581
29002 581
29003 581
29004 581
29005 581
29006 581
29007 581
29008 581
29009 581
29010 581
29011 581
29012 581
29013 581
29014 581
29015 581
29016 581
29017 581
29018 581
29019 581
29020 581
29021 581
29022 581
29023 581
29024 581
29025 581
29026 581
29027 581
29028 581
29029 581
29030 581
29031 581
29032 581
29033 581
29034 581
29035 581
29036 581
29037 581
29038 581
29039 581
29040 581
29041 581
29042 581
29043 581
29044 581
29045 581
29046 581
29047 581
29048 581
29049 581
29050 581
29051 582
29052 582
29053 582
29054 582
29055 582
29056 582
29057 582
29058 582
29059 582
29060 582
29061 582
29062 582
29063 582
29064 582
29065 582
29066 582
29067 582
29068 582
29069 582
29070 582
29071 582
29072 582
29073 582
29074 582
29075 582
29076 582
29077 582
29078 582
29079 582
29080 582
29081 582
29082 582
29083 582
29084 582
29085 582
29086 582
29087 582
29088 582
29089 582
29090 582
29091 582
29092 582
29093 582
29094 582
29095 582
29096 582
29097 582
29098 582
29099 582
29100 582
29101 583
29102 583
29103 583
29104 583
29105 583
29106 583
29107 583
29108 583
29109 583
29110 583
29111 583
29112 583
29113 583
29114 583
29115 583
29116 583
29117 583
29118 583
29119 583
29120 583
29121 583
29122 583
29123 583
29124 583
29125 583
29126 583
29127 583
29128 583
29129 583
29130 583
29131 583
29132 583
29133 583
29134 583
29135 583
29136 583
29137 583
29138 583
29139 583
29140 583
29141 583
29142 583
29143 583
29144 583
29145 583
29146 583
29147 583
29148 583
29149 583
29150 583
29151 584
29152 584
29153 584
29154 584
29155 584
29156 584
29157 584
29158 584
29159 584
29160 584
29161 584
29162 584
29163 584
29164 584
29165 584
29166 584
29167 584
29168 584
29169 584
29170 584
29171 584
29172 584
29173 584
29174 584
29175 584
29176 584
29177 584
29178 584
29179 584
29180 584
29181 584
29182 584
29183 584
29184 584
29185 584
29186 584
29187 584
29188 584
29189 584
29190 584
29191 584
29192 584
29193 584
29194 584
29195 584
29196 584
29197 584
29198 584
29199 584
29200 584
29201 585
29202 585
29203 585
29204 585
29205 585
29206 585
29207 585
29208 585
29209 585
29210 585
29211 585
29212 585
29213 585
29214 585
29215 585
29216 585
29217 585
29218 585
29219 585
29220 585
29221 585
29222 585
29223 585
29224 585
29225 585
29226 585
29227 585
29228 585
29229 585
29230 585
29231 585
29232 585
29233 585
29234 585
29235 585
29236 585
29237 585
29238 585
29239 585
29240 585
29241 585
29242 585
29243 585
29244 585
29245 585
29246 585
29247 585
29248 585
29249 585
29250 585
29251 586
29252 586
29253 586
29254 586
29255 586
29256 586
29257 586
29258 586
29259 586
29260 586
29261 586
29262 586
29263 586
29264 586
29265 586
29266 586
29267 586
29268 586
29269 586
29270 586
29271 586
29272 586
29273 586
29274 586
29275 586
29276 586
29277 586
29278 586
29279 586
29280 586
29281 586
29282 586
29283 586
29284 586
29285 586
29286 586
29287 586
29288 586
29289 586
29290 586
29291 586
29292 586
29293 586
29294 586
29295 586
29296 586
29297 586
29298 586
29299 586
29300 586
29301 587
29302 587
29303 587
29304 587
29305 587
29306 587
29307 587
29308 587
29309 587
29310 587
29311 587
29312 587
29313 587
29314 587
29315 587
29316 587
29317 587
29318 587
29319 587
29320 587
29321 587
29322 587
29323 587
29324 587
29325 587
29326 587
29327 587
29328 587
29329 587
29330 587
29331 587
29332 587
29333 587
29334 587
29335 587
29336 587
29337 587
29338 587
29339 587
29340 587
29341 587
29342 587
29343 587
29344 587
29345 587
29346 587
29347 587
29348 587
29349 587
29350 587
29351 588
29352 588
29353 588
29354 588
29355 588
29356 588
29357 588
29358 588
29359 588
29360 588
29361 588
29362 588
29363 588
29364 588
29365 588
29366 588
29367 588
29368 588
29369 588
29370 588
29371 588
29372 588
29373 588
29374 588
29375 588
29376 588
29377 588
29378 588
29379 588
29380 588
29381 588
29382 588
29383 588
29384 588
29385 588
29386 588
29387 588
29388 588
29389 588
29390 588
29391 588
29392 588
29393 588
29394 588
29395 588
29396 588
29397 588
29398 588
29399 588
29400 588
29401 589
29402 589
29403 589
29404 589
29405 589
29406 589
29407 589
29408 589
29409 589
29410 589
29411 589
29412 589
29413 589
29414 589
29415 589
29416 589
29417 589
29418 589
29419 589
29420 589
29421 589
29422 589
29423 589
29424 589
29425 589
29426 589
29427 589
29428 589
29429 589
29430 589
29431 589
29432 589
29433 589
29434 589
29435 589
29436 589
29437 589
29438 589
29439 589
29440 589
29441 589
29442 589
29443 589
29444 589
29445 589
29446 589
29447 589
29448 589
29449 589
29450 589
29451 590
29452 590
29453 590
29454 590
29455 590
29456 590
29457 590
29458 590
29459 590
29460 590
29461 590
29462 590
29463 590
29464 590
29465 590
29466 590
29467 590
29468 590
29469 590
29470 590
29471 590
29472 590
29473 590
29474 590
29475 590
29476 590
29477 590
29478 590
29479 590
29480 590
29481 590
29482 590
29483 590
29484 590
29485 590
29486 590
29487 590
29488 590
29489 590
29490 590
29491 590
29492 590
29493 590
29494 590
29495 590
29496 590
29497 590
29498 590
29499 590
29500 590
29501 591
29502 591
29503 591
29504 591
29505 591
29506 591
29507 591
29508 591
29509 591
29510 591
29511 591
29512 591
29513 591
29514 591
29515 591
29516 591
29517 591
29518 591
29519 591
29520 591
29521 591
29522 591
29523 591
29524 591
29525 591
29526 591
29527 591
29528 591
29529 591
29530 591
29531 591
29532 591
29533 591
29534 591
29535 591
29536 591
29537 591
29538 591
29539 591
29540 591
29541 591
29542 591
29543 591
29544 591
29545 591
29546 591
29547 591
29548 591
29549 591
29550 591
29551 592
29552 592
29553 592
29554 592
29555 592
29556 592
29557 592
29558 592
29559 592
29560 592
29561 592
29562 592
29563 592
29564 592
29565 592
29566 592
29567 592
29568 592
29569 592
29570 592
29571 592
29572 592
29573 592
29574 592
29575 592
29576 592
29577 592
29578 592
29579 592
29580 592
29581 592
29582 592
29583 592
29584 592
29585 592
29586 592
29587 592
29588 592
29589 592
29590 592
29591 592
29592 592
29593 592
29594 592
29595 592
29596 592
29597 592
29598 592
29599 592
29600 592
29601 593
29602 593
29603 593
29604 593
29605 593
29606 593
29607 593
29608 593
29609 593
29610 593
29611 593
29612 593
29613 593
29614 593
29615 593
29616 593
29617 593
29618 593
29619 593
29620 593
29621 593
29622 593
29623 593
29624 593
29625 593
29626 593
29627 593
29628 593
29629 593
29630 593
29631 593
29632 593
29633 593
29634 593
29635 593
29636 593
29637 593
29638 593
29639 593
29640 593
29641 593
29642 593
29643 593
29644 593
29645 593
29646 593
29647 593
29648 593
29649 593
29650 593
29651 594
29652 594
29653 594
29654 594
29655 594
29656 594
29657 594
29658 594
29659 594
29660 594
29661 594
29662 594
29663 594
29664 594
29665 594
29666 594
29667 594
29668 594
29669 594
29670 594
29671 594
29672 594
29673 594
29674 594
29675 594
29676 594
29677 594
29678 594
29679 594
29680 594
29681 594
29682 594
29683 594
29684 594
29685 594
29686 594
29687 594
29688 594
29689 594
29690 594
29691 594
29692 594
29693 594
29694 594
29695 594
29696 594
29697 594
29698 594
29699 594
29700 594
29701 595
29702 595
29703 595
29704 595
29705 595
29706 595
29707 595
29708 595
29709 595
29710 595
29711 595
29712 595
29713 595
29714 595
29715 595
29716 595
29717 595
29718 595
29719 595
29720 595
29721 595
29722 595
29723 595
29724 595
29725 595
29726 595
29727 595
29728 595
29729 595
29730 595
29731 595
29732 595
29733 595
29734 595
29735 595
29736 595
29737 595
29738 595
29739 595
29740 595
29741 595
29742 595
29743 595
29744 595
29745 595
29746 595
29747 595
29748 595
29749 595
29750 595
29751 596
29752 596
29753 596
29754 596
29755 596
29756 596
29757 596
29758 596
29759 596
29760 596
29761 596
29762 596
29763 596
29764 596
29765 596
29766 596
29767 596
29768 596
29769 596
29770 596
29771 596
29772 596
29773 596
29774 596
29775 596
29776 596
29777 596
29778 596
29779 596
29780 596
29781 596
29782 596
29783 596
29784 596
29785 596
29786 596
29787 596
29788 596
29789 596
29790 596
29791 596
29792 596
29793 596
29794 596
29795 596
29796 596
29797 596
29798 596
29799 596
29800 596
29801 597
29802 597
29803 597
29804 597
29805 597
29806 597
29807 597
29808 597
29809 597
29810 597
29811 597
29812 597
29813 597
29814 597
29815 597
29816 597
29817 597
29818 597
29819 597
29820 597
29821 597
29822 597
29823 597
29824 597
29825 597
29826 597
29827 597
29828 597
29829 597
29830 597
29831 597
29832 597
29833 597
29834 597
29835 597
29836 597
29837 597
29838 597
29839 597
29840 597
29841 597
29842 597
29843 597
29844 597
29845 597
29846 597
29847 597
29848 597
29849 597
29850 597
29851 598
29852 598
29853 598
29854 598
29855 598
29856 598
29857 598
29858 598
29859 598
29860 598
29861 598
29862 598
29863 598
29864 598
29865 598
29866 598
29867 598
29868 598
29869 598
29870 598
29871 598
29872 598
29873 598
29874 598
29875 598
29876 598
29877 598
29878 598
29879 598
29880 598
29881 598
29882 598
29883 598
29884 598
29885 598
29886 598
29887 598
29888 598
29889 598
29890 598
29891 598
29892 598
29893 598
29894 598
29895 598
29896 598
29897 598
29898 598
29899 598
29900 598
29901 599
29902 599
29903 599
29904 599
29905 599
29906 599
29907 599
29908 599
29909 599
29910 599
29911 599
29912 599
29913 599
29914 599
29915 599
29916 599
29917 599
29918 599
29919 599
29920 599
29921 599
29922 599
29923 599
29924 599
29925 599
29926 599
29927 599
29928 599
29929 599
29930 599
29931 599
29932 599
29933 599
29934 599
29935 599
29936 599
29937 599
29938 599
29939 599
29940 599
29941 599
29942 599
29943 599
29944 599
29945 599
29946 599
29947 599
29948 599
29949 599
29950 599
29951 600
29952 600
29953 600
29954 600
29955 600
29956 600
29957 600
29958 600
29959 600
29960 600
29961 600
29962 600
29963 600
29964 600
29965 600
29966 600
29967 600
29968 600
29969 600
29970 600
29971 600
29972 600
29973 600
29974 600
29975 600
29976 600
29977 600
29978 600
29979 600
29980 600
29981 600
29982 600
29983 600
29984 600
29985 600
29986 600
29987 600
29988 600
29989 600
29990 600
29991 600
29992 600
29993 600
29994 600
29995 600
29996 600
29997 600
29998 600
29999 600
30000 600
30001 601
30002 601
30003 601
30004 601
30005 601
30006 601
30007 601
30008 601
30009 601
30010 601
30011 601
30012 601
30013 601
30014 601
30015 601
30016 601
30017 601
30018 601
30019 601
30020 601
30021 601
30022 601
30023 601
30024 601
30025 601
30026 601
30027 601
30028 601
30029 601
30030 601
30031 601
30032 601
30033 601
30034 601
30035 601
30036 601
30037 601
30038 601
30039 601
30040 601
30041 601
30042 601
30043 601
30044 601
30045 601
30046 601
30047 601
30048 601
30049 601
30050 601
30051 602
30052 602
30053 602
30054 602
30055 602
30056 602
30057 602
30058 602
30059 602
30060 602
30061 602
30062 602
30063 602
30064 602
30065 602
30066 602
30067 602
30068 602
30069 602
30070 602
30071 602
30072 602
30073 602
30074 602
30075 602
30076 602
30077 602
30078 602
30079 602
30080 602
30081 602
30082 602
30083 602
30084 602
30085 602
30086 602
30087 602
30088 602
30089 602
30090 602
30091 602
30092 602
30093 602
30094 602
30095 602
30096 602
30097 602
30098 602
30099 602
30100 602
30101 603
30102 603
30103 603
30104 603
30105 603
30106 603
30107 603
30108 603
30109 603
30110 603
30111 603
30112 603
30113 603
30114 603
30115 603
30116 603
30117 603
30118 603
30119 603
30120 603
30121 603
30122 603
30123 603
30124 603
30125 603
30126 603
30127 603
30128 603
30129 603
30130 603
30131 603
30132 603
30133 603
30134 603
30135 603
30136 603
30137 603
30138 603
30139 603
30140 603
30141 603
30142 603
30143 603
30144 603
30145 603
30146 603
30147 603
30148 603
30149 603
30150 603
30151 604
30152 604
30153 604
30154 604
30155 604
30156 604
30157 604
30158 604
30159 604
30160 604
30161 604
30162 604
30163 604
30164 604
30165 604
30166 604
30167 604
30168 604
30169 604
30170 604
30171 604
30172 604
30173 604
30174 604
30175 604
30176 604
30177 604
30178 604
30179 604
30180 604
30181 604
30182 604
30183 604
30184 604
30185 604
30186 604
30187 604
30188 604
30189 604
30190 604
30191 604
30192 604
30193 604
30194 604
30195 604
30196 604
30197 604
30198 604
30199 604
30200 604
30201 605
30202 605
30203 605
30204 605
30205 605
30206 605
30207 605
30208 605
30209 605
30210 605
30211 605
30212 605
30213 605
30214 605
30215 605
30216 605
30217 605
30218 605
30219 605
30220 605
30221 605
30222 605
30223 605
30224 605
30225 605
30226 605
30227 605
30228 605
30229 605
30230 605
30231 605
30232 605
30233 605
30234 605
30235 605
30236 605
30237 605
30238 605
30239 605
30240 605
30241 605
30242 605
30243 605
30244 605
30245 605
30246 605
30247 605
30248 605
30249 605
30250 605
30251 606
30252 606
30253 606
30254 606
30255 606
30256 606
30257 606
30258 606
30259 606
30260 606
30261 606
30262 606
30263 606
30264 606
30265 606
30266 606
30267 606
30268 606
30269 606
30270 606
30271 606
30272 606
30273 606
30274 606
30275 606
30276 606
30277 606
30278 606
30279 606
30280 606
30281 606
30282 606
30283 606
30284 606
30285 606
30286 606
30287 606
30288 606
30289 606
30290 606
30291 606
30292 606
30293 606
30294 606
30295 606
30296 606
30297 606
30298 606
30299 606
30300 606
30301 607
30302 607
30303 607
30304 607
30305 607
30306 607
30307 607
30308 607
30309 607
30310 607
30311 607
30312 607
30313 607
30314 607
30315 607
30316 607
30317 607
30318 607
30319 607
30320 607
30321 607
30322 607
30323 607
30324 607
30325 607
30326 607
30327 607
30328 607
30329 607
30330 607
30331 607
30332 607
30333 607
30334 607
30335 607
30336 607
30337 607
30338 607
30339 607
30340 607
30341 607
30342 607
30343 607
30344 607
30345 607
30346 607
30347 607
30348 607
30349 607
30350 607
30351 608
30352 608
30353 608
30354 608
30355 608
30356 608
30357 608
30358 608
30359 608
30360 608
30361 608
30362 608
30363 608
30364 608
30365 608
30366 608
30367 608
30368 608
30369 608
30370 608
30371 608
30372 608
30373 608
30374 608
30375 608
30376 608
30377 608
30378 608
30379 608
30380 608
30381 608
30382 608
30383 608
30384 608
30385 608
30386 608
30387 608
30388 608
30389 608
30390 608
30391 608
30392 608
30393 608
30394 608
30395 608
30396 608
30397 608
30398 608
30399 608
30400 608
30401 609
30402 609
30403 609
30404 609
30405 609
30406 609
30407 609
30408 609
30409 609
30410 609
30411 609
30412 609
30413 609
30414 609
30415 609
30416 609
30417 609
30418 609
30419 609
30420 609
30421 609
30422 609
30423 609
30424 609
30425 609
30426 609
30427 609
30428 609
30429 609
30430 609
30431 609
30432 609
30433 609
30434 609
30435 609
30436 609
30437 609
30438 609
30439 609
30440 609
30441 609
30442 609
30443 609
30444 609
30445 609
30446 609
30447 609
30448 609
30449 609
30450 609
30451 610
30452 610
30453 610
30454 610
30455 610
30456 610
30457 610
30458 610
30459 610
30460 610
30461 610
30462 610
30463 610
30464 610
30465 610
30466 610
30467 610
30468 610
30469 610
30470 610
30471 610
30472 610
30473 610
30474 610
30475 610
30476 610
30477 610
30478 610
30479 610
30480 610
30481 610
30482 610
30483 610
30484 610
30485 610
30486 610
30487 610
30488 610
30489 610
30490 610
30491 610
30492 610
30493 610
30494 610
30495 610
30496 610
30497 610
30498 610
30499 610
30500 610
30501 611
30502 611
30503 611
30504 611
30505 611
30506 611
30507 611
30508 611
30509 611
30510 611
30511 611
30512 611
30513 611
30514 611
30515 611
30516 611
30517 611
30518 611
30519 611
30520 611
30521 611
30522 611
30523 611
30524 611
30525 611
30526 611
30527 611
30528 611
30529 611
30530 611
30531 611
30532 611
30533 611
30534 611
30535 611
30536 611
30537 611
30538 611
30539 611
30540 611
30541 611
30542 611
30543 611
30544 611
30545 611
30546 611
30547 611
30548 611
30549 611
30550 611
30551 612
30552 612
30553 612
30554 612
30555 612
30556 612
30557 612
30558 612
30559 612
30560 612
30561 612
30562 612
30563 612
30564 612
30565 612
30566 612
30567 612
30568 612
30569 612
30570 612
30571 612
30572 612
30573 612
30574 612
30575 612
30576 612
30577 612
30578 612
30579 612
30580 612
30581 612
30582 612
30583 612
30584 612
30585 612
30586 612
30587 612
30588 612
30589 612
30590 612
30591 612
30592 612
30593 612
30594 612
30595 612
30596 612
30597 612
30598 612
30599 612
30600 612
30601 613
30602 613
30603 613
30604 613
30605 613
30606 613
30607 613
30608 613
30609 613
30610 613
30611 613
30612 613
30613 613
30614 613
30615 613
30616 613
30617 613
30618 613
30619 613
30620 613
30621 613
30622 613
30623 613
30624 613
30625 613
30626 613
30627 613
30628 613
30629 613
30630 613
30631 613
30632 613
30633 613
30634 613
30635 613
30636 613
30637 613
30638 613
30639 613
30640 613
30641 613
30642 613
30643 613
30644 613
30645 613
30646 613
30647 613
30648 613
30649 613
30650 613
30651 614
30652 614
30653 614
30654 614
30655 614
30656 614
30657 614
30658 614
30659 614
30660 614
30661 614
30662 614
30663 614
30664 614
30665 614
30666 614
30667 614
30668 614
30669 614
30670 614
30671 614
30672 614
30673 614
30674 614
30675 614
30676 614
30677 614
30678 614
30679 614
30680 614
30681 614
30682 614
30683 614
30684 614
30685 614
30686 614
30687 614
30688 614
30689 614
30690 614
30691 614
30692 614
30693 614
30694 614
30695 614
30696 614
30697 614
30698 614
30699 614
30700 614
30701 615
30702 615
30703 615
30704 615
30705 615
30706 615
30707 615
30708 615
30709 615
30710 615
30711 615
30712 615
30713 615
30714 615
30715 615
30716 615
30717 615
30718 615
30719 615
30720 615
30721 615
30722 615
30723 615
30724 615
30725 615
30726 615
30727 615
30728 615
30729 615
30730 615
30731 615
30732 615
30733 615
30734 615
30735 615
30736 615
30737 615
30738 615
30739 615
30740 615
30741 615
30742 615
30743 615
30744 615
30745 615
30746 615
30747 615
30748 615
30749 615
30750 615
30751 616
30752 616
30753 616
30754 616
30755 616
30756 616
30757 616
30758 616
30759 616
30760 616
30761 616
30762 616
30763 616
30764 616
30765 616
30766 616
30767 616
30768 616
30769 616
30770 616
30771 616
30772 616
30773 616
30774 616
30775 616
30776 616
30777 616
30778 616
30779 616
30780 616
30781 616
30782 616
30783 616
30784 616
30785 616
30786 616
30787 616
30788 616
30789 616
30790 616
30791 616
30792 616
30793 616
30794 616
30795 616
30796 616
30797 616
30798 616
30799 616
30800 616
30801 617
30802 617
30803 617
30804 617
30805 617
30806 617
30807 617
30808 617
30809 617
30810 617
30811 617
30812 617
30813 617
30814 617
30815 617
30816 617
30817 617
30818 617
30819 617
30820 617
30821 617
30822 617
30823 617
30824 617
30825 617
30826 617
30827 617
30828 617
30829 617
30830 617
30831 617
30832 617
30833 617
30834 617
30835 617
30836 617
30837 617
30838 617
30839 617
30840 617
30841 617
30842 617
30843 617
30844 617
30845 617
30846 617
30847 617
30848 617
30849 617
30850 617
30851 618
30852 618
30853 618
30854 618
30855 618
30856 618
30857 618
30858 618
30859 618
30860 618
30861 618
30862 618
30863 618
30864 618
30865 618
30866 618
30867 618
30868 618
30869 618
30870 618
30871 618
30872 618
30873 618
30874 618
30875 618
30876 618
30877 618
30878 618
30879 618
30880 618
30881 618
30882 618
30883 618
30884 618
30885 618
30886 618
30887 618
30888 618
30889 618
30890 618
30891 618
30892 618
30893 618
30894 618
30895 618
30896 618
30897 618
30898 618
30899 618
30900 618
30901 619
30902 619
30903 619
30904 619
30905 619
30906 619
30907 619
30908 619
30909 619
30910 619
30911 619
30912 619
30913 619
30914 619
30915 619
30916 619
30917 619
30918 619
30919 619
30920 619
30921 619
30922 619
30923 619
30924 619
30925 619
30926 619
30927 619
30928 619
30929 619
30930 619
30931 619
30932 619
30933 619
30934 619
30935 619
30936 619
30937 619
30938 619
30939 619
30940 619
30941 619
30942 619
30943 619
30944 619
30945 619
30946 619
30947 619
30948 619
30949 619
30950 619
30951 620
30952 620
30953 620
30954 620
30955 620
30956 620
30957 620
30958 620
30959 620
30960 620
30961 620
30962 620
30963 620
30964 620
30965 620
30966 620
30967 620
30968 620
30969 620
30970 620
30971 620
30972 620
30973 620
30974 620
30975 620
30976 620
30977 620
30978 620
30979 620
30980 620
30981 620
30982 620
30983 620
30984 620
30985 620
30986 620
30987 620
30988 620
30989 620
30990 620
30991 620
30992 620
30993 620
30994 620
30995 620
30996 620
30997 620
30998 620
30999 620
31000 620
31001 621
31002 621
31003 621
31004 621
31005 621
31006 621
31007 621
31008 621
31009 621
31010 621
31011 621
31012 621
31013 621
31014 621
31015 621
31016 621
31017 621
31018 621
31019 621
31020 621
31021 621
31022 621
31023 621
31024 621
31025 621
31026 621
31027 621
31028 621
31029 621
31030 621
31031 621
31032 621
31033 621
31034 621
31035 621
31036 621
31037 621
31038 621
31039 621
31040 621
31041 621
31042 621
31043 621
31044 621
31045 621
31046 621
31047 621
31048 621
31049 621
31050 621
31051 622
31052 622
31053 622
31054 622
31055 622
31056 622
31057 622
31058 622
31059 622
31060 622
31061 622
31062 622
31063 622
31064 622
31065 622
31066 622
31067 622
31068 622
31069 622
31070 622
31071 622
31072 622
31073 622
31074 622
31075 622
31076 622
31077 622
31078 622
31079 622
31080 622
31081 622
31082 622
31083 622
31084 622
31085 622
31086 622
31087 622
31088 622
31089 622
31090 622
31091 622
31092 622
31093 622
31094 622
31095 622
31096 622
31097 622
31098 622
31099 622
31100 622
31101 623
31102 623
31103 623
31104 623
31105 623
31106 623
31107 623
31108 623
31109 623
31110 623
31111 623
31112 623
31113 623
31114 623
31115 623
31116 623
31117 623
31118 623
31119 623
31120 623
31121 623
31122 623
31123 623
31124 623
31125 623
31126 623
31127 623
31128 623
31129 623
31130 623
31131 623
31132 623
31133 623
31134 623
31135 623
31136 623
31137 623
31138 623
31139 623
31140 623
31141 623
31142 623
31143 623
31144 623
31145 623
31146 623
31147 623
31148 623
31149 623
31150 623
31151 624
31152 624
31153 624
31154 624
31155 624
31156 624
31157 624
31158 624
31159 624
31160 624
31161 624
31162 624
31163 624
31164 624
31165 624
31166 624
31167 624
31168 624
31169 624
31170 624
31171 624
31172 624
31173 624
31174 624
31175 624
31176 624
31177 624
31178 624
31179 624
31180 624
31181 624
31182 624
31183 624
31184 624
31185 624
31186 624
31187 624
31188 624
31189 624
31190 624
31191 624
31192 624
31193 624
31194 624
31195 624
31196 624
31197 624
31198 624
31199 624
31200 624
31201 625
31202 625
31203 625
31204 625
31205 625
31206 625
31207 625
31208 625
31209 625
31210 625
31211 625
31212 625
31213 625
31214 625
31215 625
31216 625
31217 625
31218 625
31219 625
31220 625
31221 625
31222 625
31223 625
31224 625
31225 625
31226 625
31227 625
31228 625
31229 625
31230 625
31231 625
31232 625
31233 625
31234 625
31235 625
31236 625
31237 625
31238 625
31239 625
31240 625
31241 625
31242 625
31243 625
31244 625
31245 625
31246 625
31247 625
31248 625
31249 625
31250 625
31251 626
31252 626
31253 626
31254 626
31255 626
31256 626
31257 626
31258 626
31259 626
31260 626
31261 626
31262 626
31263 626
31264 626
31265 626
31266 626
31267 626
31268 626
31269 626
31270 626
31271 626
31272 626
31273 626
31274 626
31275 626
31276 626
31277 626
31278 626
31279 626
31280 626
31281 626
31282 626
31283 626
31284 626
31285 626
31286 626
31287 626
31288 626
31289 626
31290 626
31291 626
31292 626
31293 626
31294 626
31295 626
31296 626
31297 626
31298 626
31299 626
31300 626
31301 627
31302 627
31303 627
31304 627
31305 627
31306 627
31307 627
31308 627
31309 627
31310 627
31311 627
31312 627
31313 627
31314 627
31315 627
31316 627
31317 627
31318 627
31319 627
31320 627
31321 627
31322 627
31323 627
31324 627
31325 627
31326 627
31327 627
31328 627
31329 627
31330 627
31331 627
31332 627
31333 627
31334 627
31335 627
31336 627
31337 627
31338 627
31339 627
31340 627
31341 627
31342 627
31343 627
31344 627
31345 627
31346 627
31347 627
31348 627
31349 627
31350 627
31351 628
31352 628
31353 628
31354 628
31355 628
31356 628
31357 628
31358 628
31359 628
31360 628
31361 628
31362 628
31363 628
31364 628
31365 628
31366 628
31367 628
31368 628
31369 628
31370 628
31371 628
31372 628
31373 628
31374 628
31375 628
31376 628
31377 628
31378 628
31379 628
31380 628
31381 628
31382 628
31383 628
31384 628
31385 628
31386 628
31387 628
31388 628
31389 628
31390 628
31391 628
31392 628
31393 628
31394 628
31395 628
31396 628
31397 628
31398 628
31399 628
31400 628
31401 629
31402 629
31403 629
31404 629
31405 629
31406 629
31407 629
31408 629
31409 629
31410 629
31411 629
31412 629
31413 629
31414 629
31415 629
31416 629
31417 629
31418 629
31419 629
31420 629
31421 629
31422 629
31423 629
31424 629
31425 629
31426 629
31427 629
31428 629
31429 629
31430 629
31431 629
31432 629
31433 629
31434 629
31435 629
31436 629
31437 629
31438 629
31439 629
31440 629
31441 629
31442 629
31443 629
31444 629
31445 629
31446 629
31447 629
31448 629
31449 629
31450 629
31451 630
31452 630
31453 630
31454 630
31455 630
31456 630
31457 630
31458 630
31459 630
31460 630
31461 630
31462 630
31463 630
31464 630
31465 630
31466 630
31467 630
31468 630
31469 630
31470 630
31471 630
31472 630
31473 630
31474 630
31475 630
31476 630
31477 630
31478 630
31479 630
31480 630
31481 630
31482 630
31483 630
31484 630
31485 630
31486 630
31487 630
31488 630
31489 630
31490 630
31491 630
31492 630
31493 630
31494 630
31495 630
31496 630
31497 630
31498 630
31499 630
31500 630
31501 631
31502 631
31503 631
31504 631
31505 631
31506 631
31507 631
31508 631
31509 631
31510 631
31511 631
31512 631
31513 631
31514 631
31515 631
31516 631
31517 631
31518 631
31519 631
31520 631
31521 631
31522 631
31523 631
31524 631
31525 631
31526 631
31527 631
31528 631
31529 631
31530 631
31531 631
31532 631
31533 631
31534 631
31535 631
31536 631
31537 631
31538 631
31539 631
31540 631
31541 631
31542 631
31543 631
31544 631
31545 631
31546 631
31547 631
31548 631
31549 631
31550 631
31551 632
31552 632
31553 632
31554 632
31555 632
31556 632
31557 632
31558 632
31559 632
31560 632
31561 632
31562 632
31563 632
31564 632
31565 632
31566 632
31567 632
31568 632
31569 632
31570 632
31571 632
31572 632
31573 632
31574 632
31575 632
31576 632
31577 632
31578 632
31579 632
31580 632
31581 632
31582 632
31583 632
31584 632
31585 632
31586 632
31587 632
31588 632
31589 632
31590 632
31591 632
31592 632
31593 632
31594 632
31595 632
31596 632
31597 632
31598 632
31599 632
31600 632
31601 633
31602 633
31603 633
31604 633
31605 633
31606 633
31607 633
31608 633
31609 633
31610 633
31611 633
31612 633
31613 633
31614 633
31615 633
31616 633
31617 633
31618 633
31619 633
31620 633
31621 633
31622 633
31623 633
31624 633
31625 633
31626 633
31627 633
31628 633
31629 633
31630 633
31631 633
31632 633
31633 633
31634 633
31635 633
31636 633
31637 633
31638 633
31639 633
31640 633
31641 633
31642 633
31643 633
31644 633
31645 633
31646 633
31647 633
31648 633
31649 633
31650 633
31651 634
31652 634
31653 634
31654 634
31655 634
31656 634
31657 634
31658 634
31659 634
31660 634
31661 634
31662 634
31663 634
31664 634
31665 634
31666 634
31667 634
31668 634
31669 634
31670 634
31671 634
31672 634
31673 634
31674 634
31675 634
31676 634
31677 634
31678 634
31679 634
31680 634
31681 634
31682 634
31683 634
31684 634
31685 634
31686 634
31687 634
31688 634
31689 634
31690 634
31691 634
31692 634
31693 634
31694 634
31695 634
31696 634
31697 634
31698 634
31699 634
31700 634
31701 635
31702 635
31703 635
31704 635
31705 635
31706 635
31707 635
31708 635
31709 635
31710 635
31711 635
31712 635
31713 635
31714 635
31715 635
31716 635
31717 635
31718 635
31719 635
31720 635
31721 635
31722 635
31723 635
31724 635
31725 635
31726 635
31727 635
31728 635
31729 635
31730 635
31731 635
31732 635
31733 635
31734 635
31735 635
31736 635
31737 635
31738 635
31739 635
31740 635
31741 635
31742 635
31743 635
31744 635
31745 635
31746 635
31747 635
31748 635
31749 635
31750 635
31751 636
31752 636
31753 636
31754 636
31755 636
31756 636
31757 636
31758 636
31759 636
31760 636
31761 636
31762 636
31763 636
31764 636
31765 636
31766 636
31767 636
31768 636
31769 636
31770 636
31771 636
31772 636
31773 636
31774 636
31775 636
31776 636
31777 636
31778 636
31779 636
31780 636
31781 636
31782 636
31783 636
31784 636
31785 636
31786 636
31787 636
31788 636
31789 636
31790 636
31791 636
31792 636
31793 636
31794 636
31795 636
31796 636
31797 636
31798 636
31799 636
31800 636
31801 637
31802 637
31803 637
31804 637
31805 637
31806 637
31807 637
31808 637
31809 637
31810 637
31811 637
31812 637
31813 637
31814 637
31815 637
31816 637
31817 637
31818 637
31819 637
31820 637
31821 637
31822 637
31823 637
31824 637
31825 637
31826 637
31827 637
31828 637
31829 637
31830 637
31831 637
31832 637
31833 637
31834 637
31835 637
31836 637
31837 637
31838 637
31839 637
31840 637
31841 637
31842 637
31843 637
31844 637
31845 637
31846 637
31847 637
31848 637
31849 637
31850 637
31851 638
31852 638
31853 638
31854 638
31855 638
31856 638
31857 638
31858 638
31859 638
31860 638
31861 638
31862 638
31863 638
31864 638
31865 638
31866 638
31867 638
31868 638
31869 638
31870 638
31871 638
31872 638
31873 638
31874 638
31875 638
31876 638
31877 638
31878 638
31879 638
31880 638
31881 638
31882 638
31883 638
31884 638
31885 638
31886 638
31887 638
31888 638
31889 638
31890 638
31891 638
31892 638
31893 638
31894 638
31895 638
31896 638
31897 638
31898 638
31899 638
31900 638
31901 639
31902 639
31903 639
31904 639
31905 639
31906 639
31907 639
31908 639
31909 639
31910 639
31911 639
31912 639
31913 639
31914 639
31915 639
31916 639
31917 639
31918 639
31919 639
31920 639
31921 639
31922 639
31923 639
31924 639
31925 639
31926 639
31927 639
31928 639
31929 639
31930 639
31931 639
31932 639
31933 639
31934 639
31935 639
31936 639
31937 639
31938 639
31939 639
31940 639
31941 639
31942 639
31943 639
31944 639
31945 639
31946 639
31947 639
31948 639
31949 639
31950 639
31951 640
31952 640
31953 640
31954 640
31955 640
31956 640
31957 640
31958 640
31959 640
31960 640
31961 640
31962 640
31963 640
31964 640
31965 640
31966 640
31967 640
31968 640
31969 640
31970 640
31971 640
31972 640
31973 640
31974 640
31975 640
31976 640
31977 640
31978 640
31979 640
31980 640
31981 640
31982 640
31983 640
31984 640
31985 640
31986 640
31987 640
31988 640
31989 640
31990 640
31991 640
31992 640
31993 640
31994 640
31995 640
31996 640
31997 640
31998 640
31999 640
32000 640
32001 641
32002 641
32003 641
32004 641
32005 641
32006 641
32007 641
32008 641
32009 641
32010 641
32011 641
32012 641
32013 641
32014 641
32015 641
32016 641
32017 641
32018 641
32019 641
32020 641
32021 641
32022 641
32023 641
32024 641
32025 641
32026 641
32027 641
32028 641
32029 641
32030 641
32031 641
32032 641
32033 641
32034 641
32035 641
32036 641
32037 641
32038 641
32039 641
32040 641
32041 641
32042 641
32043 641
32044 641
32045 641
32046 641
32047 641
32048 641
32049 641
32050 641
32051 642
32052 642
32053 642
32054 642
32055 642
32056 642
32057 642
32058 642
32059 642
32060 642
32061 642
32062 642
32063 642
32064 642
32065 642
32066 642
32067 642
32068 642
32069 642
32070 642
32071 642
32072 642
32073 642
32074 642
32075 642
32076 642
32077 642
32078 642
32079 642
32080 642
32081 642
32082 642
32083 642
32084 642
32085 642
32086 642
32087 642
32088 642
32089 642
32090 642
32091 642
32092 642
32093 642
32094 642
32095 642
32096 642
32097 642
32098 642
32099 642
32100 642
32101 643
32102 643
32103 643
32104 643
32105 643
32106 643
32107 643
32108 643
32109 643
32110 643
32111 643
32112 643
32113 643
32114 643
32115 643
32116 643
32117 643
32118 643
32119 643
32120 643
32121 643
32122 643
32123 643
32124 643
32125 643
32126 643
32127 643
32128 643
32129 643
32130 643
32131 643
32132 643
32133 643
32134 643
32135 643
32136 643
32137 643
32138 643
32139 643
32140 643
32141 643
32142 643
32143 643
32144 643
32145 643
32146 643
32147 643
32148 643
32149 643
32150 643
32151 644
32152 644
32153 644
32154 644
32155 644
32156 644
32157 644
32158 644
32159 644
32160 644
32161 644
32162 644
32163 644
32164 644
32165 644
32166 644
32167 644
32168 644
32169 644
32170 644
32171 644
32172 644
32173 644
32174 644
32175 644
32176 644
32177 644
32178 644
32179 644
32180 644
32181 644
32182 644
32183 644
32184 644
32185 644
32186 644
32187 644
32188 644
32189 644
32190 644
32191 644
32192 644
32193 644
32194 644
32195 644
32196 644
32197 644
32198 644
32199 644
32200 644
32201 645
32202 645
32203 645
32204 645
32205 645
32206 645
32207 645
32208 645
32209 645
32210 645
32211 645
32212 645
32213 645
32214 645
32215 645
32216 645
32217 645
32218 645
32219 645
32220 645
32221 645
32222 645
32223 645
32224 645
32225 645
32226 645
32227 645
32228 645
32229 645
32230 645
32231 645
32232 645
32233 645
32234 645
32235 645
32236 645
32237 645
32238 645
32239 645
32240 645
32241 645
32242 645
32243 645
32244 645
32245 645
32246 645
32247 645
32248 645
32249 645
32250 645
32251 646
32252 646
32253 646
32254 646
32255 646
32256 646
32257 646
32258 646
32259 646
32260 646
32261 646
32262 646
32263 646
32264 646
32265 646
32266 646
32267 646
32268 646
32269 646
32270 646
32271 646
32272 646
32273 646
32274 646
32275 646
32276 646
32277 646
32278 646
32279 646
32280 646
32281 646
32282 646
32283 646
32284 646
32285 646
32286 646
32287 646
32288 646
32289 646
32290 646
32291 646
32292 646
32293 646
32294 646
32295 646
32296 646
32297 646
32298 646
32299 646
32300 646
32301 647
32302 647
32303 647
32304 647
32305 647
32306 647
32307 647
32308 647
32309 647
32310 647
32311 647
32312 647
32313 647
32314 647
32315 647
32316 647
32317 647
32318 647
32319 647
32320 647
32321 647
32322 647
32323 647
32324 647
32325 647
32326 647
32327 647
32328 647
32329 647
32330 647
32331 647
32332 647
32333 647
32334 647
32335 647
32336 647
32337 647
32338 647
32339 647
32340 647
32341 647
32342 647
32343 647
32344 647
32345 647
32346 647
32347 647
32348 647
32349 647
32350 647
32351 648
32352 648
32353 648
32354 648
32355 648
32356 648
32357 648
32358 648
32359 648
32360 648
32361 648
32362 648
32363 648
32364 648
32365 648
32366 648
32367 648
32368 648
32369 648
32370 648
32371 648
32372 648
32373 648
32374 648
32375 648
32376 648
32377 648
32378 648
32379 648
32380 648
32381 648
32382 648
32383 648
32384 648
32385 648
32386 648
32387 648
32388 648
32389 648
32390 648
32391 648
32392 648
32393 648
32394 648
32395 648
32396 648
32397 648
32398 648
32399 648
32400 648
32401 649
32402 649
32403 649
32404 649
32405 649
32406 649
32407 649
32408 649
32409 649
32410 649
32411 649
32412 649
32413 649
32414 649
32415 649
32416 649
32417 649
32418 649
32419 649
32420 649
32421 649
32422 649
32423 649
32424 649
32425 649
32426 649
32427 649
32428 649
32429 649
32430 649
32431 649
32432 649
32433 649
32434 649
32435 649
32436 649
32437 649
32438 649
32439 649
32440 649
32441 649
32442 649
32443 649
32444 649
32445 649
32446 649
32447 649
32448 649
32449 649
32450 649
32451 650
32452 650
32453 650
32454 650
32455 650
32456 650
32457 650
32458 650
32459 650
32460 650
32461 650
32462 650
32463 650
32464 650
32465 650
32466 650
32467 650
32468 650
32469 650
32470 650
32471 650
32472 650
32473 650
32474 650
32475 650
32476 650
32477 650
32478 650
32479 650
32480 650
32481 650
32482 650
32483 650
32484 650
32485 650
32486 650
32487 650
32488 650
32489 650
32490 650
32491 650
32492 650
32493 650
32494 650
32495 650
32496 650
32497 650
32498 650
32499 650
32500 650
32501 651
32502 651
32503 651
32504 651
32505 651
32506 651
32507 651
32508 651
32509 651
32510 651
32511 651
32512 651
32513 651
32514 651
32515 651
32516 651
32517 651
32518 651
32519 651
32520 651
32521 651
32522 651
32523 651
32524 651
32525 651
32526 651
32527 651
32528 651
32529 651
32530 651
32531 651
32532 651
32533 651
32534 651
32535 651
32536 651
32537 651
32538 651
32539 651
32540 651
32541 651
32542 651
32543 651
32544 651
32545 651
32546 651
32547 651
32548 651
32549 651
32550 651
32551 652
32552 652
32553 652
32554 652
32555 652
32556 652
32557 652
32558 652
32559 652
32560 652
32561 652
32562 652
32563 652
32564 652
32565 652
32566 652
32567 652
32568 652
32569 652
32570 652
32571 652
32572 652
32573 652
32574 652
32575 652
32576 652
32577 652
32578 652
32579 652
32580 652
32581 652
32582 652
32583 652
32584 652
32585 652
32586 652
32587 652
32588 652
32589 652
32590 652
32591 652
32592 652
32593 652
32594 652
32595 652
32596 652
32597 652
32598 652
32599 652
32600 652
32601 653
32602 653
32603 653
32604 653
32605 653
32606 653
32607 653
32608 653
32609 653
32610 653
32611 653
32612 653
32613 653
32614 653
32615 653
32616 653
32617 653
32618 653
32619 653
32620 653
32621 653
32622 653
32623 653
32624 653
32625 653
32626 653
32627 653
32628 653
32629 653
32630 653
32631 653
32632 653
32633 653
32634 653
32635 653
32636 653
32637 653
32638 653
32639 653
32640 653
32641 653
32642 653
32643 653
32644 653
32645 653
32646 653
32647 653
32648 653
32649 653
32650 653
32651 654
32652 654
32653 654
32654 654
32655 654
32656 654
32657 654
32658 654
32659 654
32660 654
32661 654
32662 654
32663 654
32664 654
32665 654
32666 654
32667 654
32668 654
32669 654
32670 654
32671 654
32672 654
32673 654
32674 654
32675 654
32676 654
32677 654
32678 654
32679 654
32680 654
32681 654
32682 654
32683 654
32684 654
32685 654
32686 654
32687 654
32688 654
32689 654
32690 654
32691 654
32692 654
32693 654
32694 654
32695 654
32696 654
32697 654
32698 654
32699 654
32700 654
32701 655
32702 655
32703 655
32704 655
32705 655
32706 655
32707 655
32708 655
32709 655
32710 655
32711 655
32712 655
32713 655
32714 655
32715 655
32716 655
32717 655
32718 655
32719 655
32720 655
32721 655
32722 655
32723 655
32724 655
32725 655
32726 655
32727 655
32728 655
32729 655
32730 655
32731 655
32732 655
32733 655
32734 655
32735 655
32736 655
32737 655
32738 655
32739 655
32740 655
32741 655
32742 655
32743 655
32744 655
32745 655
32746 655
32747 655
32748 655
32749 655
32750 655
32751 656
32752 656
32753 656
32754 656
32755 656
32756 656
32757 656
32758 656
32759 656
32760 656
32761 656
32762 656
32763 656
32764 656
32765 656
32766 656
32767 656
32768 656
32769 656
32770 656
32771 656
32772 656
32773 656
32774 656
32775 656
32776 656
32777 656
32778 656
32779 656
32780 656
32781 656
32782 656
32783 656
32784 656
32785 656
32786 656
32787 656
32788 656
32789 656
32790 656
32791 656
32792 656
32793 656
32794 656
32795 656
32796 656
32797 656
32798 656
32799 656
32800 656
32801 657
32802 657
32803 657
32804 657
32805 657
32806 657
32807 657
32808 657
32809 657
32810 657
32811 657
32812 657
32813 657
32814 657
32815 657
32816 657
32817 657
32818 657
32819 657
32820 657
32821 657
32822 657
32823 657
32824 657
32825 657
32826 657
32827 657
32828 657
32829 657
32830 657
32831 657
32832 657
32833 657
32834 657
32835 657
32836 657
32837 657
32838 657
32839 657
32840 657
32841 657
32842 657
32843 657
32844 657
32845 657
32846 657
32847 657
32848 657
32849 657
32850 657
32851 658
32852 658
32853 658
32854 658
32855 658
32856 658
32857 658
32858 658
32859 658
32860 658
32861 658
32862 658
32863 658
32864 658
32865 658
32866 658
32867 658
32868 658
32869 658
32870 658
32871 658
32872 658
32873 658
32874 658
32875 658
32876 658
32877 658
32878 658
32879 658
32880 658
32881 658
32882 658
32883 658
32884 658
32885 658
32886 658
32887 658
32888 658
32889 658
32890 658
32891 658
32892 658
32893 658
32894 658
32895 658
32896 658
32897 658
32898 658
32899 658
32900 658
32901 659
32902 659
32903 659
32904 659
32905 659
32906 659
32907 659
32908 659
32909 659
32910 659
32911 659
32912 659
32913 659
32914 659
32915 659
32916 659
32917 659
32918 659
32919 659
32920 659
32921 659
32922 659
32923 659
32924 659
32925 659
32926 659
32927 659
32928 659
32929 659
32930 659
32931 659
32932 659
32933 659
32934 659
32935 659
32936 659
32937 659
32938 659
32939 659
32940 659
32941 659
32942 659
32943 659
32944 659
32945 659
32946 659
32947 659
32948 659
32949 659
32950 659
32951 660
32952 660
32953 660
32954 660
32955 660
32956 660
32957 660
32958 660
32959 660
32960 660
32961 660
32962 660
32963 660
32964 660
32965 660
32966 660
32967 660
32968 660
32969 660
32970 660
32971 660
32972 660
32973 660
32974 660
32975 660
32976 660
32977 660
32978 660
32979 660
32980 660
32981 660
32982 660
32983 660
32984 660
32985 660
32986 660
32987 660
32988 660
32989 660
32990 660
32991 660
32992 660
32993 660
32994 660
32995 660
32996 660
32997 660
32998 660
32999 660
33000 660
33001 661
33002 661
33003 661
33004 661
33005 661
33006 661
33007 661
33008 661
33009 661
33010 661
33011 661
33012 661
33013 661
33014 661
33015 661
33016 661
33017 661
33018 661
33019 661
33020 661
33021 661
33022 661
33023 661
33024 661
33025 661
33026 661
33027 661
33028 661
33029 661
33030 661
33031 661
33032 661
33033 661
33034 661
33035 661
33036 661
33037 661
33038 661
33039 661
33040 661
33041 661
33042 661
33043 661
33044 661
33045 661
33046 661
33047 661
33048 661
33049 661
33050 661
33051 662
33052 662
33053 662
33054 662
33055 662
33056 662
33057 662
33058 662
33059 662
33060 662
33061 662
33062 662
33063 662
33064 662
33065 662
33066 662
33067 662
33068 662
33069 662
33070 662
33071 662
33072 662
33073 662
33074 662
33075 662
33076 662
33077 662
33078 662
33079 662
33080 662
33081 662
33082 662
33083 662
33084 662
33085 662
33086 662
33087 662
33088 662
33089 662
33090 662
33091 662
33092 662
33093 662
33094 662
33095 662
33096 662
33097 662
33098 662
33099 662
33100 662
33101 663
33102 663
33103 663
33104 663
33105 663
33106 663
33107 663
33108 663
33109 663
33110 663
33111 663
33112 663
33113 663
33114 663
33115 663
33116 663
33117 663
33118 663
33119 663
33120 663
33121 663
33122 663
33123 663
33124 663
33125 663
33126 663
33127 663
33128 663
33129 663
33130 663
33131 663
33132 663
33133 663
33134 663
33135 663
33136 663
33137 663
33138 663
33139 663
33140 663
33141 663
33142 663
33143 663
33144 663
33145 663
33146 663
33147 663
33148 663
33149 663
33150 663
33151 664
33152 664
33153 664
33154 664
33155 664
33156 664
33157 664
33158 664
33159 664
33160 664
33161 664
33162 664
33163 664
33164 664
33165 664
33166 664
33167 664
33168 664
33169 664
33170 664
33171 664
33172 664
33173 664
33174 664
33175 664
33176 664
33177 664
33178 664
33179 664
33180 664
33181 664
33182 664
33183 664
33184 664
33185 664
33186 664
33187 664
33188 664
33189 664
33190 664
33191 664
33192 664
33193 664
33194 664
33195 664
33196 664
33197 664
33198 664
33199 664
33200 664
33201 665
33202 665
33203 665
33204 665
33205 665
33206 665
33207 665
33208 665
33209 665
33210 665
33211 665
33212 665
33213 665
33214 665
33215 665
33216 665
33217 665
33218 665
33219 665
33220 665
33221 665
33222 665
33223 665
33224 665
33225 665
33226 665
33227 665
33228 665
33229 665
33230 665
33231 665
33232 665
33233 665
33234 665
33235 665
33236 665
33237 665
33238 665
33239 665
33240 665
33241 665
33242 665
33243 665
33244 665
33245 665
33246 665
33247 665
33248 665
33249 665
33250 665
33251 666
33252 666
33253 666
33254 666
33255 666
33256 666
33257 666
33258 666
33259 666
33260 666
33261 666
33262 666
33263 666
33264 666
33265 666
33266 666
33267 666
33268 666
33269 666
33270 666
33271 666
33272 666
33273 666
33274 666
33275 666
33276 666
33277 666
33278 666
33279 666
33280 666
33281 666
33282 666
33283 666
33284 666
33285 666
33286 666
33287 666
33288 666
33289 666
33290 666
33291 666
33292 666
33293 666
33294 666
33295 666
33296 666
33297 666
33298 666
33299 666
33300 666
33301 667
33302 667
33303 667
33304 667
33305 667
33306 667
33307 667
33308 667
33309 667
33310 667
33311 667
33312 667
33313 667
33314 667
33315 667
33316 667
33317 667
33318 667
33319 667
33320 667
33321 667
33322 667
33323 667
33324 667
33325 667
33326 667
33327 667
33328 667
33329 667
33330 667
33331 667
33332 667
33333 667
33334 667
33335 667
33336 667
33337 667
33338 667
33339 667
33340 667
33341 667
33342 667
33343 667
33344 667
33345 667
33346 667
33347 667
33348 667
33349 667
33350 667
33351 668
33352 668
33353 668
33354 668
33355 668
33356 668
33357 668
33358 668
33359 668
33360 668
33361 668
33362 668
33363 668
33364 668
33365 668
33366 668
33367 668
33368 668
33369 668
33370 668
33371 668
33372 668
33373 668
33374 668
33375 668
33376 668
33377 668
33378 668
33379 668
33380 668
33381 668
33382 668
33383 668
33384 668
33385 668
33386 668
33387 668
33388 668
33389 668
33390 668
33391 668
33392 668
33393 668
33394 668
33395 668
33396 668
33397 668
33398 668
33399 668
33400 668
33401 669
33402 669
33403 669
33404 669
33405 669
33406 669
33407 669
33408 669
33409 669
33410 669
33411 669
33412 669
33413 669
33414 669
33415 669
33416 669
33417 669
33418 669
33419 669
33420 669
33421 669
33422 669
33423 669
33424 669
33425 669
33426 669
33427 669
33428 669
33429 669
33430 669
33431 669
33432 669
33433 669
33434 669
33435 669
33436 669
33437 669
33438 669
33439 669
33440 669
33441 669
33442 669
33443 669
33444 669
33445 669
33446 669
33447 669
33448 669
33449 669
33450 669
33451 670
33452 670
33453 670
33454 670
33455 670
33456 670
33457 670
33458 670
33459 670
33460 670
33461 670
33462 670
33463 670
33464 670
33465 670
33466 670
33467 670
33468 670
33469 670
33470 670
33471 670
33472 670
33473 670
33474 670
33475 670
33476 670
33477 670
33478 670
33479 670
33480 670
33481 670
33482 670
33483 670
33484 670
33485 670
33486 670
33487 670
33488 670
33489 670
33490 670
33491 670
33492 670
33493 670
33494 670
33495 670
33496 670
33497 670
33498 670
33499 670
33500 670
33501 671
33502 671
33503 671
33504 671
33505 671
33506 671
33507 671
33508 671
33509 671
33510 671
33511 671
33512 671
33513 671
33514 671
33515 671
33516 671
33517 671
33518 671
33519 671
33520 671
33521 671
33522 671
33523 671
33524 671
33525 671
33526 671
33527 671
33528 671
33529 671
33530 671
33531 671
33532 671
33533 671
33534 671
33535 671
33536 671
33537 671
33538 671
33539 671
33540 671
33541 671
33542 671
33543 671
33544 671
33545 671
33546 671
33547 671
33548 671
33549 671
33550 671
33551 672
33552 672
33553 672
33554 672
33555 672
33556 672
33557 672
33558 672
33559 672
33560 672
33561 672
33562 672
33563 672
33564 672
33565 672
33566 672
33567 672
33568 672
33569 672
33570 672
33571 672
33572 672
33573 672
33574 672
33575 672
33576 672
33577 672
33578 672
33579 672
33580 672
33581 672
33582 672
33583 672
33584 672
33585 672
33586 672
33587 672
33588 672
33589 672
33590 672
33591 672
33592 672
33593 672
33594 672
33595 672
33596 672
33597 672
33598 672
33599 672
33600 672
33601 673
33602 673
33603 673
33604 673
33605 673
33606 673
33607 673
33608 673
33609 673
33610 673
33611 673
33612 673
33613 673
33614 673
33615 673
33616 673
33617 673
33618 673
33619 673
33620 673
33621 673
33622 673
33623 673
33624 673
33625 673
33626 673
33627 673
33628 673
33629 673
33630 673
33631 673
33632 673
33633 673
33634 673
33635 673
33636 673
33637 673
33638 673
33639 673
33640 673
33641 673
33642 673
33643 673
33644 673
33645 673
33646 673
33647 673
33648 673
33649 673
33650 673
33651 674
33652 674
33653 674
33654 674
33655 674
33656 674
33657 674
33658 674
33659 674
33660 674
33661 674
33662 674
33663 674
33664 674
33665 674
33666 674
33667 674
33668 674
33669 674
33670 674
33671 674
33672 674
33673 674
33674 674
33675 674
33676 674
33677 674
33678 674
33679 674
33680 674
33681 674
33682 674
33683 674
33684 674
33685 674
33686 674
33687 674
33688 674
33689 674
33690 674
33691 674
33692 674
33693 674
33694 674
33695 674
33696 674
33697 674
33698 674
33699 674
33700 674
33701 675
33702 675
33703 675
33704 675
33705 675
33706 675
33707 675
33708 675
33709 675
33710 675
33711 675
33712 675
33713 675
33714 675
33715 675
33716 675
33717 675
33718 675
33719 675
33720 675
33721 675
33722 675
33723 675
33724 675
33725 675
33726 675
33727 675
33728 675
33729 675
33730 675
33731 675
33732 675
33733 675
33734 675
33735 675
33736 675
33737 675
33738 675
33739 675
33740 675
33741 675
33742 675
33743 675
33744 675
33745 675
33746 675
33747 675
33748 675
33749 675
33750 675
33751 676
33752 676
33753 676
33754 676
33755 676
33756 676
33757 676
33758 676
33759 676
33760 676
33761 676
33762 676
33763 676
33764 676
33765 676
33766 676
33767 676
33768 676
33769 676
33770 676
33771 676
33772 676
33773 676
33774 676
33775 676
33776 676
33777 676
33778 676
33779 676
33780 676
33781 676
33782 676
33783 676
33784 676
33785 676
33786 676
33787 676
33788 676
33789 676
33790 676
33791 676
33792 676
33793 676
33794 676
33795 676
33796 676
33797 676
33798 676
33799 676
33800 676
33801 677
33802 677
33803 677
33804 677
33805 677
33806 677
33807 677
33808 677
33809 677
33810 677
33811 677
33812 677
33813 677
33814 677
33815 677
33816 677
33817 677
33818 677
33819 677
33820 677
33821 677
33822 677
33823 677
33824 677
33825 677
33826 677
33827 677
33828 677
33829 677
33830 677
33831 677
33832 677
33833 677
33834 677
33835 677
33836 677
33837 677
33838 677
33839 677
33840 677
33841 677
33842 677
33843 677
33844 677
33845 677
33846 677
33847 677
33848 677
33849 677
33850 677
33851 678
33852 678
33853 678
33854 678
33855 678
33856 678
33857 678
33858 678
33859 678
33860 678
33861 678
33862 678
33863 678
33864 678
33865 678
33866 678
33867 678
33868 678
33869 678
33870 678
33871 678
33872 678
33873 678
33874 678
33875 678
33876 678
33877 678
33878 678
33879 678
33880 678
33881 678
33882 678
33883 678
33884 678
33885 678
33886 678
33887 678
33888 678
33889 678
33890 678
33891 678
33892 678
33893 678
33894 678
33895 678
33896 678
33897 678
33898 678
33899 678
33900 678
33901 679
33902 679
33903 679
33904 679
33905 679
33906 679
33907 679
33908 679
33909 679
33910 679
33911 679
33912 679
33913 679
33914 679
33915 679
33916 679
33917 679
33918 679
33919 679
33920 679
33921 679
33922 679
33923 679
33924 679
33925 679
33926 679
33927 679
33928 679
33929 679
33930 679
33931 679
33932 679
33933 679
33934 679
33935 679
33936 679
33937 679
33938 679
33939 679
33940 679
33941 679
33942 679
33943 679
33944 679
33945 679
33946 679
33947 679
33948 679
33949 679
33950 679
33951 680
33952 680
33953 680
33954 680
33955 680
33956 680
33957 680
33958 680
33959 680
33960 680
33961 680
33962 680
33963 680
33964 680
33965 680
33966 680
33967 680
33968 680
33969 680
33970 680
33971 680
33972 680
33973 680
33974 680
33975 680
33976 680
33977 680
33978 680
33979 680
33980 680
33981 680
33982 680
33983 680
33984 680
33985 680
33986 680
33987 680
33988 680
33989 680
33990 680
33991 680
33992 680
33993 680
33994 680
33995 680
33996 680
33997 680
33998 680
33999 680
34000 680
34001 681
34002 681
34003 681
34004 681
34005 681
34006 681
34007 681
34008 681
34009 681
34010 681
34011 681
34012 681
34013 681
34014 681
34015 681
34016 681
34017 681
34018 681
34019 681
34020 681
34021 681
34022 681
34023 681
34024 681
34025 681
34026 681
34027 681
34028 681
34029 681
34030 681
34031 681
34032 681
34033 681
34034 681
34035 681
34036 681
34037 681
34038 681
34039 681
34040 681
34041 681
34042 681
34043 681
34044 681
34045 681
34046 681
34047 681
34048 681
34049 681
34050 681
34051 682
34052 682
34053 682
34054 682
34055 682
34056 682
34057 682
34058 682
34059 682
34060 682
34061 682
34062 682
34063 682
34064 682
34065 682
34066 682
34067 682
34068 682
34069 682
34070 682
34071 682
34072 682
34073 682
34074 682
34075 682
34076 682
34077 682
34078 682
34079 682
34080 682
34081 682
34082 682
34083 682
34084 682
34085 682
34086 682
34087 682
34088 682
34089 682
34090 682
34091 682
34092 682
34093 682
34094 682
34095 682
34096 682
34097 682
34098 682
34099 682
34100 682
34101 683
34102 683
34103 683
34104 683
34105 683
34106 683
34107 683
34108 683
34109 683
34110 683
34111 683
34112 683
34113 683
34114 683
34115 683
34116 683
34117 683
34118 683
34119 683
34120 683
34121 683
34122 683
34123 683
34124 683
34125 683
34126 683
34127 683
34128 683
34129 683
34130 683
34131 683
34132 683
34133 683
34134 683
34135 683
34136 683
34137 683
34138 683
34139 683
34140 683
34141 683
34142 683
34143 683
34144 683
34145 683
34146 683
34147 683
34148 683
34149 683
34150 683
34151 684
34152 684
34153 684
34154 684
34155 684
34156 684
34157 684
34158 684
34159 684
34160 684
34161 684
34162 684
34163 684
34164 684
34165 684
34166 684
34167 684
34168 684
34169 684
34170 684
34171 684
34172 684
34173 684
34174 684
34175 684
34176 684
34177 684
34178 684
34179 684
34180 684
34181 684
34182 684
34183 684
34184 684
34185 684
34186 684
34187 684
34188 684
34189 684
34190 684
34191 684
34192 684
34193 684
34194 684
34195 684
34196 684
34197 684
34198 684
34199 684
34200 684
34201 685
34202 685
34203 685
34204 685
34205 685
34206 685
34207 685
34208 685
34209 685
34210 685
34211 685
34212 685
34213 685
34214 685
34215 685
34216 685
34217 685
34218 685
34219 685
34220 685
34221 685
34222 685
34223 685
34224 685
34225 685
34226 685
34227 685
34228 685
34229 685
34230 685
34231 685
34232 685
34233 685
34234 685
34235 685
34236 685
34237 685
34238 685
34239 685
34240 685
34241 685
34242 685
34243 685
34244 685
34245 685
34246 685
34247 685
34248 685
34249 685
34250 685
34251 686
34252 686
34253 686
34254 686
34255 686
34256 686
34257 686
34258 686
34259 686
34260 686
34261 686
34262 686
34263 686
34264 686
34265 686
34266 686
34267 686
34268 686
34269 686
34270 686
34271 686
34272 686
34273 686
34274 686
34275 686
34276 686
34277 686
34278 686
34279 686
34280 686
34281 686
34282 686
34283 686
34284 686
34285 686
34286 686
34287 686
34288 686
34289 686
34290 686
34291 686
34292 686
34293 686
34294 686
34295 686
34296 686
34297 686
34298 686
34299 686
34300 686
34301 687
34302 687
34303 687
34304 687
34305 687
34306 687
34307 687
34308 687
34309 687
34310 687
34311 687
34312 687
34313 687
34314 687
34315 687
34316 687
34317 687
34318 687
34319 687
34320 687
34321 687
34322 687
34323 687
34324 687
34325 687
34326 687
34327 687
34328 687
34329 687
34330 687
34331 687
34332 687
34333 687
34334 687
34335 687
34336 687
34337 687
34338 687
34339 687
34340 687
34341 687
34342 687
34343 687
34344 687
34345 687
34346 687
34347 687
34348 687
34349 687
34350 687
34351 688
34352 688
34353 688
34354 688
34355 688
34356 688
34357 688
34358 688
34359 688
34360 688
34361 688
34362 688
34363 688
34364 688
34365 688
34366 688
34367 688
34368 688
34369 688
34370 688
34371 688
34372 688
34373 688
34374 688
34375 688
34376 688
34377 688
34378 688
34379 688
34380 688
34381 688
34382 688
34383 688
34384 688
34385 688
34386 688
34387 688
34388 688
34389 688
34390 688
34391 688
34392 688
34393 688
34394 688
34395 688
34396 688
34397 688
34398 688
34399 688
34400 688
34401 689
34402 689
34403 689
34404 689
34405 689
34406 689
34407 689
34408 689
34409 689
34410 689
34411 689
34412 689
34413 689
34414 689
34415 689
34416 689
34417 689
34418 689
34419 689
34420 689
34421 689
34422 689
34423 689
34424 689
34425 689
34426 689
34427 689
34428 689
34429 689
34430 689
34431 689
34432 689
34433 689
34434 689
34435 689
34436 689
34437 689
34438 689
34439 689
34440 689
34441 689
34442 689
34443 689
34444 689
34445 689
34446 689
34447 689
34448 689
34449 689
34450 689
34451 690
34452 690
34453 690
34454 690
34455 690
34456 690
34457 690
34458 690
34459 690
34460 690
34461 690
34462 690
34463 690
34464 690
34465 690
34466 690
34467 690
34468 690
34469 690
34470 690
34471 690
34472 690
34473 690
34474 690
34475 690
34476 690
34477 690
34478 690
34479 690
34480 690
34481 690
34482 690
34483 690
34484 690
34485 690
34486 690
34487 690
34488 690
34489 690
34490 690
34491 690
34492 690
34493 690
34494 690
34495 690
34496 690
34497 690
34498 690
34499 690
34500 690
34501 691
34502 691
34503 691
34504 691
34505 691
34506 691
34507 691
34508 691
34509 691
34510 691
34511 691
34512 691
34513 691
34514 691
34515 691
34516 691
34517 691
34518 691
34519 691
34520 691
34521 691
34522 691
34523 691
34524 691
34525 691
34526 691
34527 691
34528 691
34529 691
34530 691
34531 691
34532 691
34533 691
34534 691
34535 691
34536 691
34537 691
34538 691
34539 691
34540 691
34541 691
34542 691
34543 691
34544 691
34545 691
34546 691
34547 691
34548 691
34549 691
34550 691
34551 692
34552 692
34553 692
34554 692
34555 692
34556 692
34557 692
34558 692
34559 692
34560 692
34561 692
34562 692
34563 692
34564 692
34565 692
34566 692
34567 692
34568 692
34569 692
34570 692
34571 692
34572 692
34573 692
34574 692
34575 692
34576 692
34577 692
34578 692
34579 692
34580 692
34581 692
34582 692
34583 692
34584 692
34585 692
34586 692
34587 692
34588 692
34589 692
34590 692
34591 692
34592 692
34593 692
34594 692
34595 692
34596 692
34597 692
34598 692
34599 692
34600 692
34601 693
34602 693
34603 693
34604 693
34605 693
34606 693
34607 693
34608 693
34609 693
34610 693
34611 693
34612 693
34613 693
34614 693
34615 693
34616 693
34617 693
34618 693
34619 693
34620 693
34621 693
34622 693
34623 693
34624 693
34625 693
34626 693
34627 693
34628 693
34629 693
34630 693
34631 693
34632 693
34633 693
34634 693
34635 693
34636 693
34637 693
34638 693
34639 693
34640 693
34641 693
34642 693
34643 693
34644 693
34645 693
34646 693
34647 693
34648 693
34649 693
34650 693
34651 694
34652 694
34653 694
34654 694
34655 694
34656 694
34657 694
34658 694
34659 694
34660 694
34661 694
34662 694
34663 694
34664 694
34665 694
34666 694
34667 694
34668 694
34669 694
34670 694
34671 694
34672 694
34673 694
34674 694
34675 694
34676 694
34677 694
34678 694
34679 694
34680 694
34681 694
34682 694
34683 694
34684 694
34685 694
34686 694
34687 694
34688 694
34689 694
34690 694
34691 694
34692 694
34693 694
34694 694
34695 694
34696 694
34697 694
34698 694
34699 694
34700 694
34701 695
34702 695
34703 695
34704 695
34705 695
34706 695
34707 695
34708 695
34709 695
34710 695
34711 695
34712 695
34713 695
34714 695
34715 695
34716 695
34717 695
34718 695
34719 695
34720 695
34721 695
34722 695
34723 695
34724 695
34725 695
34726 695
34727 695
34728 695
34729 695
34730 695
34731 695
34732 695
34733 695
34734 695
34735 695
34736 695
34737 695
34738 695
34739 695
34740 695
34741 695
34742 695
34743 695
34744 695
34745 695
34746 695
34747 695
34748 695
34749 695
34750 695
34751 696
34752 696
34753 696
34754 696
34755 696
34756 696
34757 696
34758 696
34759 696
34760 696
34761 696
34762 696
34763 696
34764 696
34765 696
34766 696
34767 696
34768 696
34769 696
34770 696
34771 696
34772 696
34773 696
34774 696
34775 696
34776 696
34777 696
34778 696
34779 696
34780 696
34781 696
34782 696
34783 696
34784 696
34785 696
34786 696
34787 696
34788 696
34789 696
34790 696
34791 696
34792 696
34793 696
34794 696
34795 696
34796 696
34797 696
34798 696
34799 696
34800 696
34801 697
34802 697
34803 697
34804 697
34805 697
34806 697
34807 697
34808 697
34809 697
34810 697
34811 697
34812 697
34813 697
34814 697
34815 697
34816 697
34817 697
34818 697
34819 697
34820 697
34821 697
34822 697
34823 697
34824 697
34825 697
34826 697
34827 697
34828 697
34829 697
34830 697
34831 697
34832 697
34833 697
34834 697
34835 697
34836 697
34837 697
34838 697
34839 697
34840 697
34841 697
34842 697
34843 697
34844 697
34845 697
34846 697
34847 697
34848 697
34849 697
34850 697
34851 698
34852 698
34853 698
34854 698
34855 698
34856 698
34857 698
34858 698
34859 698
34860 698
34861 698
34862 698
34863 698
34864 698
34865 698
34866 698
34867 698
34868 698
34869 698
34870 698
34871 698
34872 698
34873 698
34874 698
34875 698
34876 698
34877 698
34878 698
34879 698
34880 698
34881 698
34882 698
34883 698
34884 698
34885 698
34886 698
34887 698
34888 698
34889 698
34890 698
34891 698
34892 698
34893 698
34894 698
34895 698
34896 698
34897 698
34898 698
34899 698
34900 698
34901 699
34902 699
34903 699
34904 699
34905 699
34906 699
34907 699
34908 699
34909 699
34910 699
34911 699
34912 699
34913 699
34914 699
34915 699
34916 699
34917 699
34918 699
34919 699
34920 699
34921 699
34922 699
34923 699
34924 699
34925 699
34926 699
34927 699
34928 699
34929 699
34930 699
34931 699
34932 699
34933 699
34934 699
34935 699
34936 699
34937 699
34938 699
34939 699
34940 699
34941 699
34942 699
34943 699
34944 699
34945 699
34946 699
34947 699
34948 699
34949 699
34950 699
34951 700
34952 700
34953 700
34954 700
34955 700
34956 700
34957 700
34958 700
34959 700
34960 700
34961 700
34962 700
34963 700
34964 700
34965 700
34966 700
34967 700
34968 700
34969 700
34970 700
34971 700
34972 700
34973 700
34974 700
34975 700
34976 700
34977 700
34978 700
34979 700
34980 700
34981 700
34982 700
34983 700
34984 700
34985 700
34986 700
34987 700
34988 700
34989 700
34990 700
34991 700
34992 700
34993 700
34994 700
34995 700
34996 700
34997 700
34998 700
34999 700
35000 700
35001 701
35002 701
35003 701
35004 701
35005 701
35006 701
35007 701
35008 701
35009 701
35010 701
35011 701
35012 701
35013 701
35014 701
35015 701
35016 701
35017 701
35018 701
35019 701
35020 701
35021 701
35022 701
35023 701
35024 701
35025 701
35026 701
35027 701
35028 701
35029 701
35030 701
35031 701
35032 701
35033 701
35034 701
35035 701
35036 701
35037 701
35038 701
35039 701
35040 701
35041 701
35042 701
35043 701
35044 701
35045 701
35046 701
35047 701
35048 701
35049 701
35050 701
35051 702
35052 702
35053 702
35054 702
35055 702
35056 702
35057 702
35058 702
35059 702
35060 702
35061 702
35062 702
35063 702
35064 702
35065 702
35066 702
35067 702
35068 702
35069 702
35070 702
35071 702
35072 702
35073 702
35074 702
35075 702
35076 702
35077 702
35078 702
35079 702
35080 702
35081 702
35082 702
35083 702
35084 702
35085 702
35086 702
35087 702
35088 702
35089 702
35090 702
35091 702
35092 702
35093 702
35094 702
35095 702
35096 702
35097 702
35098 702
35099 702
35100 702
35101 703
35102 703
35103 703
35104 703
35105 703
35106 703
35107 703
35108 703
35109 703
35110 703
35111 703
35112 703
35113 703
35114 703
35115 703
35116 703
35117 703
35118 703
35119 703
35120 703
35121 703
35122 703
35123 703
35124 703
35125 703
35126 703
35127 703
35128 703
35129 703
35130 703
35131 703
35132 703
35133 703
35134 703
35135 703
35136 703
35137 703
35138 703
35139 703
35140 703
35141 703
35142 703
35143 703
35144 703
35145 703
35146 703
35147 703
35148 703
35149 703
35150 703
35151 704
35152 704
35153 704
35154 704
35155 704
35156 704
35157 704
35158 704
35159 704
35160 704
35161 704
35162 704
35163 704
35164 704
35165 704
35166 704
35167 704
35168 704
35169 704
35170 704
35171 704
35172 704
35173 704
35174 704
35175 704
35176 704
35177 704
35178 704
35179 704
35180 704
35181 704
35182 704
35183 704
35184 704
35185 704
35186 704
35187 704
35188 704
35189 704
35190 704
35191 704
35192 704
35193 704
35194 704
35195 704
35196 704
35197 704
35198 704
35199 704
35200 704
35201 705
35202 705
35203 705
35204 705
35205 705
35206 705
35207 705
35208 705
35209 705
35210 705
35211 705
35212 705
35213 705
35214 705
35215 705
35216 705
35217 705
35218 705
35219 705
35220 705
35221 705
35222 705
35223 705
35224 705
35225 705
35226 705
35227 705
35228 705
35229 705
35230 705
35231 705
35232 705
35233 705
35234 705
35235 705
35236 705
35237 705
35238 705
35239 705
35240 705
35241 705
35242 705
35243 705
35244 705
35245 705
35246 705
35247 705
35248 705
35249 705
35250 705
35251 706
35252 706
35253 706
35254 706
35255 706
35256 706
35257 706
35258 706
35259 706
35260 706
35261 706
35262 706
35263 706
35264 706
35265 706
35266 706
35267 706
35268 706
35269 706
35270 706
35271 706
35272 706
35273 706
35274 706
35275 706
35276 706
35277 706
35278 706
35279 706
35280 706
35281 706
35282 706
35283 706
35284 706
35285 706
35286 706
35287 706
35288 706
35289 706
35290 706
35291 706
35292 706
35293 706
35294 706
35295 706
35296 706
35297 706
35298 706
35299 706
35300 706
35301 707
35302 707
35303 707
35304 707
35305 707
35306 707
35307 707
35308 707
35309 707
35310 707
35311 707
35312 707
35313 707
35314 707
35315 707
35316 707
35317 707
35318 707
35319 707
35320 707
35321 707
35322 707
35323 707
35324 707
35325 707
35326 707
35327 707
35328 707
35329 707
35330 707
35331 707
35332 707
35333 707
35334 707
35335 707
35336 707
35337 707
35338 707
35339 707
35340 707
35341 707
35342 707
35343 707
35344 707
35345 707
35346 707
35347 707
35348 707
35349 707
35350 707
35351 708
35352 708
35353 708
35354 708
35355 708
35356 708
35357 708
35358 708
35359 708
35360 708
35361 708
35362 708
35363 708
35364 708
35365 708
35366 708
35367 708
35368 708
35369 708
35370 708
35371 708
35372 708
35373 708
35374 708
35375 708
35376 708
35377 708
35378 708
35379 708
35380 708
35381 708
35382 708
35383 708
35384 708
35385 708
35386 708
35387 708
35388 708
35389 708
35390 708
35391 708
35392 708
35393 708
35394 708
35395 708
35396 708
35397 708
35398 708
35399 708
35400 708
35401 709
35402 709
35403 709
35404 709
35405 709
35406 709
35407 709
35408 709
35409 709
35410 709
35411 709
35412 709
35413 709
35414 709
35415 709
35416 709
35417 709
35418 709
35419 709
35420 709
35421 709
35422 709
35423 709
35424 709
35425 709
35426 709
35427 709
35428 709
35429 709
35430 709
35431 709
35432 709
35433 709
35434 709
35435 709
35436 709
35437 709
35438 709
35439 709
35440 709
35441 709
35442 709
35443 709
35444 709
35445 709
35446 709
35447 709
35448 709
35449 709
35450 709
35451 710
35452 710
35453 710
35454 710
35455 710
35456 710
35457 710
35458 710
35459 710
35460 710
35461 710
35462 710
35463 710
35464 710
35465 710
35466 710
35467 710
35468 710
35469 710
35470 710
35471 710
35472 710
35473 710
35474 710
35475 710
35476 710
35477 710
35478 710
35479 710
35480 710
35481 710
35482 710
35483 710
35484 710
35485 710
35486 710
35487 710
35488 710
35489 710
35490 710
35491 710
35492 710
35493 710
35494 710
35495 710
35496 710
35497 710
35498 710
35499 710
35500 710
35501 711
35502 711
35503 711
35504 711
35505 711
35506 711
35507 711
35508 711
35509 711
35510 711
35511 711
35512 711
35513 711
35514 711
35515 711
35516 711
35517 711
35518 711
35519 711
35520 711
35521 711
35522 711
35523 711
35524 711
35525 711
35526 711
35527 711
35528 711
35529 711
35530 711
35531 711
35532 711
35533 711
35534 711
35535 711
35536 711
35537 711
35538 711
35539 711
35540 711
35541 711
35542 711
35543 711
35544 711
35545 711
35546 711
35547 711
35548 711
35549 711
35550 711
35551 712
35552 712
35553 712
35554 712
35555 712
35556 712
35557 712
35558 712
35559 712
35560 712
35561 712
35562 712
35563 712
35564 712
35565 712
35566 712
35567 712
35568 712
35569 712
35570 712
35571 712
35572 712
35573 712
35574 712
35575 712
35576 712
35577 712
35578 712
35579 712
35580 712
35581 712
35582 712
35583 712
35584 712
35585 712
35586 712
35587 712
35588 712
35589 712
35590 712
35591 712
35592 712
35593 712
35594 712
35595 712
35596 712
35597 712
35598 712
35599 712
35600 712
35601 713
35602 713
35603 713
35604 713
35605 713
35606 713
35607 713
35608 713
35609 713
35610 713
35611 713
35612 713
35613 713
35614 713
35615 713
35616 713
35617 713
35618 713
35619 713
35620 713
35621 713
35622 713
35623 713
35624 713
35625 713
35626 713
35627 713
35628 713
35629 713
35630 713
35631 713
35632 713
35633 713
35634 713
35635 713
35636 713
35637 713
35638 713
35639 713
35640 713
35641 713
35642 713
35643 713
35644 713
35645 713
35646 713
35647 713
35648 713
35649 713
35650 713
35651 714
35652 714
35653 714
35654 714
35655 714
35656 714
35657 714
35658 714
35659 714
35660 714
35661 714
35662 714
35663 714
35664 714
35665 714
35666 714
35667 714
35668 714
35669 714
35670 714
35671 714
35672 714
35673 714
35674 714
35675 714
35676 714
35677 714
35678 714
35679 714
35680 714
35681 714
35682 714
35683 714
35684 714
35685 714
35686 714
35687 714
35688 714
35689 714
35690 714
35691 714
35692 714
35693 714
35694 714
35695 714
35696 714
35697 714
35698 714
35699 714
35700 714
35701 715
35702 715
35703 715
35704 715
35705 715
35706 715
35707 715
35708 715
35709 715
35710 715
35711 715
35712 715
35713 715
35714 715
35715 715
35716 715
35717 715
35718 715
35719 715
35720 715
35721 715
35722 715
35723 715
35724 715
35725 715
35726 715
35727 715
35728 715
35729 715
35730 715
35731 715
35732 715
35733 715
35734 715
35735 715
35736 715
35737 715
35738 715
35739 715
35740 715
35741 715
35742 715
35743 715
35744 715
35745 715
35746 715
35747 715
35748 715
35749 715
35750 715
35751 716
35752 716
35753 716
35754 716
35755 716
35756 716
35757 716
35758 716
35759 716
35760 716
35761 716
35762 716
35763 716
35764 716
35765 716
35766 716
35767 716
35768 716
35769 716
35770 716
35771 716
35772 716
35773 716
35774 716
35775 716
35776 716
35777 716
35778 716
35779 716
35780 716
35781 716
35782 716
35783 716
35784 716
35785 716
35786 716
35787 716
35788 716
35789 716
35790 716
35791 716
35792 716
35793 716
35794 716
35795 716
35796 716
35797 716
35798 716
35799 716
35800 716
35801 717
35802 717
35803 717
35804 717
35805 717
35806 717
35807 717
35808 717
35809 717
35810 717
35811 717
35812 717
35813 717
35814 717
35815 717
35816 717
35817 717
35818 717
35819 717
35820 717
35821 717
35822 717
35823 717
35824 717
35825 717
35826 717
35827 717
35828 717
35829 717
35830 717
35831 717
35832 717
35833 717
35834 717
35835 717
35836 717
35837 717
35838 717
35839 717
35840 717
35841 717
35842 717
35843 717
35844 717
35845 717
35846 717
35847 717
35848 717
35849 717
35850 717
35851 718
35852 718
35853 718
35854 718
35855 718
35856 718
35857 718
35858 718
35859 718
35860 718
35861 718
35862 718
35863 718
35864 718
35865 718
35866 718
35867 718
35868 718
35869 718
35870 718
35871 718
35872 718
35873 718
35874 718
35875 718
35876 718
35877 718
35878 718
35879 718
35880 718
35881 718
35882 718
35883 718
35884 718
35885 718
35886 718
35887 718
35888 718
35889 718
35890 718
35891 718
35892 718
35893 718
35894 718
35895 718
35896 718
35897 718
35898 718
35899 718
35900 718
35901 719
35902 719
35903 719
35904 719
35905 719
35906 719
35907 719
35908 719
35909 719
35910 719
35911 719
35912 719
35913 719
35914 719
35915 719
35916 719
35917 719
35918 719
35919 719
35920 719
35921 719
35922 719
35923 719
35924 719
35925 719
35926 719
35927 719
35928 719
35929 719
35930 719
35931 719
35932 719
35933 719
35934 719
35935 719
35936 719
35937 719
35938 719
35939 719
35940 719
35941 719
35942 719
35943 719
35944 719
35945 719
35946 719
35947 719
35948 719
35949 719
35950 719
35951 720
35952 720
35953 720
35954 720
35955 720
35956 720
35957 720
35958 720
35959 720
35960 720
35961 720
35962 720
35963 720
35964 720
35965 720
35966 720
35967 720
35968 720
35969 720
35970 720
35971 720
35972 720
35973 720
35974 720
35975 720
35976 720
35977 720
35978 720
35979 720
35980 720
35981 720
35982 720
35983 720
35984 720
35985 720
35986 720
35987 720
35988 720
35989 720
35990 720
35991 720
35992 720
35993 720
35994 720
35995 720
35996 720
35997 720
35998 720
35999 720
36000 720
36001 721
36002 721
36003 721
36004 721
36005 721
36006 721
36007 721
36008 721
36009 721
36010 721
36011 721
36012 721
36013 721
36014 721
36015 721
36016 721
36017 721
36018 721
36019 721
36020 721
36021 721
36022 721
36023 721
36024 721
36025 721
36026 721
36027 721
36028 721
36029 721
36030 721
36031 721
36032 721
36033 721
36034 721
36035 721
36036 721
36037 721
36038 721
36039 721
36040 721
36041 721
36042 721
36043 721
36044 721
36045 721
36046 721
36047 721
36048 721
36049 721
36050 721
36051 722
36052 722
36053 722
36054 722
36055 722
36056 722
36057 722
36058 722
36059 722
36060 722
36061 722
36062 722
36063 722
36064 722
36065 722
36066 722
36067 722
36068 722
36069 722
36070 722
36071 722
36072 722
36073 722
36074 722
36075 722
36076 722
36077 722
36078 722
36079 722
36080 722
36081 722
36082 722
36083 722
36084 722
36085 722
36086 722
36087 722
36088 722
36089 722
36090 722
36091 722
36092 722
36093 722
36094 722
36095 722
36096 722
36097 722
36098 722
36099 722
36100 722
36101 723
36102 723
36103 723
36104 723
36105 723
36106 723
36107 723
36108 723
36109 723
36110 723
36111 723
36112 723
36113 723
36114 723
36115 723
36116 723
36117 723
36118 723
36119 723
36120 723
36121 723
36122 723
36123 723
36124 723
36125 723
36126 723
36127 723
36128 723
36129 723
36130 723
36131 723
36132 723
36133 723
36134 723
36135 723
36136 723
36137 723
36138 723
36139 723
36140 723
36141 723
36142 723
36143 723
36144 723
36145 723
36146 723
36147 723
36148 723
36149 723
36150 723
36151 724
36152 724
36153 724
36154 724
36155 724
36156 724
36157 724
36158 724
36159 724
36160 724
36161 724
36162 724
36163 724
36164 724
36165 724
36166 724
36167 724
36168 724
36169 724
36170 724
36171 724
36172 724
36173 724
36174 724
36175 724
36176 724
36177 724
36178 724
36179 724
36180 724
36181 724
36182 724
36183 724
36184 724
36185 724
36186 724
36187 724
36188 724
36189 724
36190 724
36191 724
36192 724
36193 724
36194 724
36195 724
36196 724
36197 724
36198 724
36199 724
36200 724
36201 725
36202 725
36203 725
36204 725
36205 725
36206 725
36207 725
36208 725
36209 725
36210 725
36211 725
36212 725
36213 725
36214 725
36215 725
36216 725
36217 725
36218 725
36219 725
36220 725
36221 725
36222 725
36223 725
36224 725
36225 725
36226 725
36227 725
36228 725
36229 725
36230 725
36231 725
36232 725
36233 725
36234 725
36235 725
36236 725
36237 725
36238 725
36239 725
36240 725
36241 725
36242 725
36243 725
36244 725
36245 725
36246 725
36247 725
36248 725
36249 725
36250 725
36251 726
36252 726
36253 726
36254 726
36255 726
36256 726
36257 726
36258 726
36259 726
36260 726
36261 726
36262 726
36263 726
36264 726
36265 726
36266 726
36267 726
36268 726
36269 726
36270 726
36271 726
36272 726
36273 726
36274 726
36275 726
36276 726
36277 726
36278 726
36279 726
36280 726
36281 726
36282 726
36283 726
36284 726
36285 726
36286 726
36287 726
36288 726
36289 726
36290 726
36291 726
36292 726
36293 726
36294 726
36295 726
36296 726
36297 726
36298 726
36299 726
36300 726
36301 727
36302 727
36303 727
36304 727
36305 727
36306 727
36307 727
36308 727
36309 727
36310 727
36311 727
36312 727
36313 727
36314 727
36315 727
36316 727
36317 727
36318 727
36319 727
36320 727
36321 727
36322 727
36323 727
36324 727
36325 727
36326 727
36327 727
36328 727
36329 727
36330 727
36331 727
36332 727
36333 727
36334 727
36335 727
36336 727
36337 727
36338 727
36339 727
36340 727
36341 727
36342 727
36343 727
36344 727
36345 727
36346 727
36347 727
36348 727
36349 727
36350 727
36351 728
36352 728
36353 728
36354 728
36355 728
36356 728
36357 728
36358 728
36359 728
36360 728
36361 728
36362 728
36363 728
36364 728
36365 728
36366 728
36367 728
36368 728
36369 728
36370 728
36371 728
36372 728
36373 728
36374 728
36375 728
36376 728
36377 728
36378 728
36379 728
36380 728
36381 728
36382 728
36383 728
36384 728
36385 728
36386 728
36387 728
36388 728
36389 728
36390 728
36391 728
36392 728
36393 728
36394 728
36395 728
36396 728
36397 728
36398 728
36399 728
36400 728
36401 729
36402 729
36403 729
36404 729
36405 729
36406 729
36407 729
36408 729
36409 729
36410 729
36411 729
36412 729
36413 729
36414 729
36415 729
36416 729
36417 729
36418 729
36419 729
36420 729
36421 729
36422 729
36423 729
36424 729
36425 729
36426 729
36427 729
36428 729
36429 729
36430 729
36431 729
36432 729
36433 729
36434 729
36435 729
36436 729
36437 729
36438 729
36439 729
36440 729
36441 729
36442 729
36443 729
36444 729
36445 729
36446 729
36447 729
36448 729
36449 729
36450 729
36451 730
36452 730
36453 730
36454 730
36455 730
36456 730
36457 730
36458 730
36459 730
36460 730
36461 730
36462 730
36463 730
36464 730
36465 730
36466 730
36467 730
36468 730
36469 730
36470 730
36471 730
36472 730
36473 730
36474 730
36475 730
36476 730
36477 730
36478 730
36479 730
36480 730
36481 730
36482 730
36483 730
36484 730
36485 730
36486 730
36487 730
36488 730
36489 730
36490 730
36491 730
36492 730
36493 730
36494 730
36495 730
36496 730
36497 730
36498 730
36499 730
36500 730
36501 731
36502 731
36503 731
36504 731
36505 731
36506 731
36507 731
36508 731
36509 731
36510 731
36511 731
36512 731
36513 731
36514 731
36515 731
36516 731
36517 731
36518 731
36519 731
36520 731
36521 731
36522 731
36523 731
36524 731
36525 731
36526 731
36527 731
36528 731
36529 731
36530 731
36531 731
36532 731
36533 731
36534 731
36535 731
36536 731
36537 731
36538 731
36539 731
36540 731
36541 731
36542 731
36543 731
36544 731
36545 731
36546 731
36547 731
36548 731
36549 731
36550 731
36551 732
36552 732
36553 732
36554 732
36555 732
36556 732
36557 732
36558 732
36559 732
36560 732
36561 732
36562 732
36563 732
36564 732
36565 732
36566 732
36567 732
36568 732
36569 732
36570 732
36571 732
36572 732
36573 732
36574 732
36575 732
36576 732
36577 732
36578 732
36579 732
36580 732
36581 732
36582 732
36583 732
36584 732
36585 732
36586 732
36587 732
36588 732
36589 732
36590 732
36591 732
36592 732
36593 732
36594 732
36595 732
36596 732
36597 732
36598 732
36599 732
36600 732
36601 733
36602 733
36603 733
36604 733
36605 733
36606 733
36607 733
36608 733
36609 733
36610 733
36611 733
36612 733
36613 733
36614 733
36615 733
36616 733
36617 733
36618 733
36619 733
36620 733
36621 733
36622 733
36623 733
36624 733
36625 733
36626 733
36627 733
36628 733
36629 733
36630 733
36631 733
36632 733
36633 733
36634 733
36635 733
36636 733
36637 733
36638 733
36639 733
36640 733
36641 733
36642 733
36643 733
36644 733
36645 733
36646 733
36647 733
36648 733
36649 733
36650 733
36651 734
36652 734
36653 734
36654 734
36655 734
36656 734
36657 734
36658 734
36659 734
36660 734
36661 734
36662 734
36663 734
36664 734
36665 734
36666 734
36667 734
36668 734
36669 734
36670 734
36671 734
36672 734
36673 734
36674 734
36675 734
36676 734
36677 734
36678 734
36679 734
36680 734
36681 734
36682 734
36683 734
36684 734
36685 734
36686 734
36687 734
36688 734
36689 734
36690 734
36691 734
36692 734
36693 734
36694 734
36695 734
36696 734
36697 734
36698 734
36699 734
36700 734
36701 735
36702 735
36703 735
36704 735
36705 735
36706 735
36707 735
36708 735
36709 735
36710 735
36711 735
36712 735
36713 735
36714 735
36715 735
36716 735
36717 735
36718 735
36719 735
36720 735
36721 735
36722 735
36723 735
36724 735
36725 735
36726 735
36727 735
36728 735
36729 735
36730 735
36731 735
36732 735
36733 735
36734 735
36735 735
36736 735
36737 735
36738 735
36739 735
36740 735
36741 735
36742 735
36743 735
36744 735
36745 735
36746 735
36747 735
36748 735
36749 735
36750 735
36751 736
36752 736
36753 736
36754 736
36755 736
36756 736
36757 736
36758 736
36759 736
36760 736
36761 736
36762 736
36763 736
36764 736
36765 736
36766 736
36767 736
36768 736
36769 736
36770 736
36771 736
36772 736
36773 736
36774 736
36775 736
36776 736
36777 736
36778 736
36779 736
36780 736
36781 736
36782 736
36783 736
36784 736
36785 736
36786 736
36787 736
36788 736
36789 736
36790 736
36791 736
36792 736
36793 736
36794 736
36795 736
36796 736
36797 736
36798 736
36799 736
36800 736
36801 737
36802 737
36803 737
36804 737
36805 737
36806 737
36807 737
36808 737
36809 737
36810 737
36811 737
36812 737
36813 737
36814 737
36815 737
36816 737
36817 737
36818 737
36819 737
36820 737
36821 737
36822 737
36823 737
36824 737
36825 737
36826 737
36827 737
36828 737
36829 737
36830 737
36831 737
36832 737
36833 737
36834 737
36835 737
36836 737
36837 737
36838 737
36839 737
36840 737
36841 737
36842 737
36843 737
36844 737
36845 737
36846 737
36847 737
36848 737
36849 737
36850 737
36851 738
36852 738
36853 738
36854 738
36855 738
36856 738
36857 738
36858 738
36859 738
36860 738
36861 738
36862 738
36863 738
36864 738
36865 738
36866 738
36867 738
36868 738
36869 738
36870 738
36871 738
36872 738
36873 738
36874 738
36875 738
36876 738
36877 738
36878 738
36879 738
36880 738
36881 738
36882 738
36883 738
36884 738
36885 738
36886 738
36887 738
36888 738
36889 738
36890 738
36891 738
36892 738
36893 738
36894 738
36895 738
36896 738
36897 738
36898 738
36899 738
36900 738
36901 739
36902 739
36903 739
36904 739
36905 739
36906 739
36907 739
36908 739
36909 739
36910 739
36911 739
36912 739
36913 739
36914 739
36915 739
36916 739
36917 739
36918 739
36919 739
36920 739
36921 739
36922 739
36923 739
36924 739
36925 739
36926 739
36927 739
36928 739
36929 739
36930 739
36931 739
36932 739
36933 739
36934 739
36935 739
36936 739
36937 739
36938 739
36939 739
36940 739
36941 739
36942 739
36943 739
36944 739
36945 739
36946 739
36947 739
36948 739
36949 739
36950 739
36951 740
36952 740
36953 740
36954 740
36955 740
36956 740
36957 740
36958 740
36959 740
36960 740
36961 740
36962 740
36963 740
36964 740
36965 740
36966 740
36967 740
36968 740
36969 740
36970 740
36971 740
36972 740
36973 740
36974 740
36975 740
36976 740
36977 740
36978 740
36979 740
36980 740
36981 740
36982 740
36983 740
36984 740
36985 740
36986 740
36987 740
36988 740
36989 740
36990 740
36991 740
36992 740
36993 740
36994 740
36995 740
36996 740
36997 740
36998 740
36999 740
37000 740
37001 741
37002 741
37003 741
37004 741
37005 741
37006 741
37007 741
37008 741
37009 741
37010 741
37011 741
37012 741
37013 741
37014 741
37015 741
37016 741
37017 741
37018 741
37019 741
37020 741
37021 741
37022 741
37023 741
37024 741
37025 741
37026 741
37027 741
37028 741
37029 741
37030 741
37031 741
37032 741
37033 741
37034 741
37035 741
37036 741
37037 741
37038 741
37039 741
37040 741
37041 741
37042 741
37043 741
37044 741
37045 741
37046 741
37047 741
37048 741
37049 741
37050 741
37051 742
37052 742
37053 742
37054 742
37055 742
37056 742
37057 742
37058 742
37059 742
37060 742
37061 742
37062 742
37063 742
37064 742
37065 742
37066 742
37067 742
37068 742
37069 742
37070 742
37071 742
37072 742
37073 742
37074 742
37075 742
37076 742
37077 742
37078 742
37079 742
37080 742
37081 742
37082 742
37083 742
37084 742
37085 742
37086 742
37087 742
37088 742
37089 742
37090 742
37091 742
37092 742
37093 742
37094 742
37095 742
37096 742
37097 742
37098 742
37099 742
37100 742
37101 743
37102 743
37103 743
37104 743
37105 743
37106 743
37107 743
37108 743
37109 743
37110 743
37111 743
37112 743
37113 743
37114 743
37115 743
37116 743
37117 743
37118 743
37119 743
37120 743
37121 743
37122 743
37123 743
37124 743
37125 743
37126 743
37127 743
37128 743
37129 743
37130 743
37131 743
37132 743
37133 743
37134 743
37135 743
37136 743
37137 743
37138 743
37139 743
37140 743
37141 743
37142 743
37143 743
37144 743
37145 743
37146 743
37147 743
37148 743
37149 743
37150 743
37151 744
37152 744
37153 744
37154 744
37155 744
37156 744
37157 744
37158 744
37159 744
37160 744
37161 744
37162 744
37163 744
37164 744
37165 744
37166 744
37167 744
37168 744
37169 744
37170 744
37171 744
37172 744
37173 744
37174 744
37175 744
37176 744
37177 744
37178 744
37179 744
37180 744
37181 744
37182 744
37183 744
37184 744
37185 744
37186 744
37187 744
37188 744
37189 744
37190 744
37191 744
37192 744
37193 744
37194 744
37195 744
37196 744
37197 744
37198 744
37199 744
37200 744
37201 745
37202 745
37203 745
37204 745
37205 745
37206 745
37207 745
37208 745
37209 745
37210 745
37211 745
37212 745
37213 745
37214 745
37215 745
37216 745
37217 745
37218 745
37219 745
37220 745
37221 745
37222 745
37223 745
37224 745
37225 745
37226 745
37227 745
37228 745
37229 745
37230 745
37231 745
37232 745
37233 745
37234 745
37235 745
37236 745
37237 745
37238 745
37239 745
37240 745
37241 745
37242 745
37243 745
37244 745
37245 745
37246 745
37247 745
37248 745
37249 745
37250 745
37251 746
37252 746
37253 746
37254 746
37255 746
37256 746
37257 746
37258 746
37259 746
37260 746
37261 746
37262 746
37263 746
37264 746
37265 746
37266 746
37267 746
37268 746
37269 746
37270 746
37271 746
37272 746
37273 746
37274 746
37275 746
37276 746
37277 746
37278 746
37279 746
37280 746
37281 746
37282 746
37283 746
37284 746
37285 746
37286 746
37287 746
37288 746
37289 746
37290 746
37291 746
37292 746
37293 746
37294 746
37295 746
37296 746
37297 746
37298 746
37299 746
37300 746
37301 747
37302 747
37303 747
37304 747
37305 747
37306 747
37307 747
37308 747
37309 747
37310 747
37311 747
37312 747
37313 747
37314 747
37315 747
37316 747
37317 747
37318 747
37319 747
37320 747
37321 747
37322 747
37323 747
37324 747
37325 747
37326 747
37327 747
37328 747
37329 747
37330 747
37331 747
37332 747
37333 747
37334 747
37335 747
37336 747
37337 747
37338 747
37339 747
37340 747
37341 747
37342 747
37343 747
37344 747
37345 747
37346 747
37347 747
37348 747
37349 747
37350 747
37351 748
37352 748
37353 748
37354 748
37355 748
37356 748
37357 748
37358 748
37359 748
37360 748
37361 748
37362 748
37363 748
37364 748
37365 748
37366 748
37367 748
37368 748
37369 748
37370 748
37371 748
37372 748
37373 748
37374 748
37375 748
37376 748
37377 748
37378 748
37379 748
37380 748
37381 748
37382 748
37383 748
37384 748
37385 748
37386 748
37387 748
37388 748
37389 748
37390 748
37391 748
37392 748
37393 748
37394 748
37395 748
37396 748
37397 748
37398 748
37399 748
37400 748
37401 749
37402 749
37403 749
37404 749
37405 749
37406 749
37407 749
37408 749
37409 749
37410 749
37411 749
37412 749
37413 749
37414 749
37415 749
37416 749
37417 749
37418 749
37419 749
37420 749
37421 749
37422 749
37423 749
37424 749
37425 749
37426 749
37427 749
37428 749
37429 749
37430 749
37431 749
37432 749
37433 749
37434 749
37435 749
37436 749
37437 749
37438 749
37439 749
37440 749
37441 749
37442 749
37443 749
37444 749
37445 749
37446 749
37447 749
37448 749
37449 749
37450 749
37451 750
37452 750
37453 750
37454 750
37455 750
37456 750
37457 750
37458 750
37459 750
37460 750
37461 750
37462 750
37463 750
37464 750
37465 750
37466 750
37467 750
37468 750
37469 750
37470 750
37471 750
37472 750
37473 750
37474 750
37475 750
37476 750
37477 750
37478 750
37479 750
37480 750
37481 750
37482 750
37483 750
37484 750
37485 750
37486 750
37487 750
37488 750
37489 750
37490 750
37491 750
37492 750
37493 750
37494 750
37495 750
37496 750
37497 750
37498 750
37499 750
37500 750
37501 751
37502 751
37503 751
37504 751
37505 751
37506 751
37507 751
37508 751
37509 751
37510 751
37511 751
37512 751
37513 751
37514 751
37515 751
37516 751
37517 751
37518 751
37519 751
37520 751
37521 751
37522 751
37523 751
37524 751
37525 751
37526 751
37527 751
37528 751
37529 751
37530 751
37531 751
37532 751
37533 751
37534 751
37535 751
37536 751
37537 751
37538 751
37539 751
37540 751
37541 751
37542 751
37543 751
37544 751
37545 751
37546 751
37547 751
37548 751
37549 751
37550 751
37551 752
37552 752
37553 752
37554 752
37555 752
37556 752
37557 752
37558 752
37559 752
37560 752
37561 752
37562 752
37563 752
37564 752
37565 752
37566 752
37567 752
37568 752
37569 752
37570 752
37571 752
37572 752
37573 752
37574 752
37575 752
37576 752
37577 752
37578 752
37579 752
37580 752
37581 752
37582 752
37583 752
37584 752
37585 752
37586 752
37587 752
37588 752
37589 752
37590 752
37591 752
37592 752
37593 752
37594 752
37595 752
37596 752
37597 752
37598 752
37599 752
37600 752
37601 753
37602 753
37603 753
37604 753
37605 753
37606 753
37607 753
37608 753
37609 753
37610 753
37611 753
37612 753
37613 753
37614 753
37615 753
37616 753
37617 753
37618 753
37619 753
37620 753
37621 753
37622 753
37623 753
37624 753
37625 753
37626 753
37627 753
37628 753
37629 753
37630 753
37631 753
37632 753
37633 753
37634 753
37635 753
37636 753
37637 753
37638 753
37639 753
37640 753
37641 753
37642 753
37643 753
37644 753
37645 753
37646 753
37647 753
37648 753
37649 753
37650 753
37651 754
37652 754
37653 754
37654 754
37655 754
37656 754
37657 754
37658 754
37659 754
37660 754
37661 754
37662 754
37663 754
37664 754
37665 754
37666 754
37667 754
37668 754
37669 754
37670 754
37671 754
37672 754
37673 754
37674 754
37675 754
37676 754
37677 754
37678 754
37679 754
37680 754
37681 754
37682 754
37683 754
37684 754
37685 754
37686 754
37687 754
37688 754
37689 754
37690 754
37691 754
37692 754
37693 754
37694 754
37695 754
37696 754
37697 754
37698 754
37699 754
37700 754
37701 755
37702 755
37703 755
37704 755
37705 755
37706 755
37707 755
37708 755
37709 755
37710 755
37711 755
37712 755
37713 755
37714 755
37715 755
37716 755
37717 755
37718 755
37719 755
37720 755
37721 755
37722 755
37723 755
37724 755
37725 755
37726 755
37727 755
37728 755
37729 755
37730 755
37731 755
37732 755
37733 755
37734 755
37735 755
37736 755
37737 755
37738 755
37739 755
37740 755
37741 755
37742 755
37743 755
37744 755
37745 755
37746 755
37747 755
37748 755
37749 755
37750 755
37751 756
37752 756
37753 756
37754 756
37755 756
37756 756
37757 756
37758 756
37759 756
37760 756
37761 756
37762 756
37763 756
37764 756
37765 756
37766 756
37767 756
37768 756
37769 756
37770 756
37771 756
37772 756
37773 756
37774 756
37775 756
37776 756
37777 756
37778 756
37779 756
37780 756
37781 756
37782 756
37783 756
37784 756
37785 756
37786 756
37787 756
37788 756
37789 756
37790 756
37791 756
37792 756
37793 756
37794 756
37795 756
37796 756
37797 756
37798 756
37799 756
37800 756
37801 757
37802 757
37803 757
37804 757
37805 757
37806 757
37807 757
37808 757
37809 757
37810 757
37811 757
37812 757
37813 757
37814 757
37815 757
37816 757
37817 757
37818 757
37819 757
37820 757
37821 757
37822 757
37823 757
37824 757
37825 757
37826 757
37827 757
37828 757
37829 757
37830 757
37831 757
37832 757
37833 757
37834 757
37835 757
37836 757
37837 757
37838 757
37839 757
37840 757
37841 757
37842 757
37843 757
37844 757
37845 757
37846 757
37847 757
37848 757
37849 757
37850 757
37851 758
37852 758
37853 758
37854 758
37855 758
37856 758
37857 758
37858 758
37859 758
37860 758
37861 758
37862 758
37863 758
37864 758
37865 758
37866 758
37867 758
37868 758
37869 758
37870 758
37871 758
37872 758
37873 758
37874 758
37875 758
37876 758
37877 758
37878 758
37879 758
37880 758
37881 758
37882 758
37883 758
37884 758
37885 758
37886 758
37887 758
37888 758
37889 758
37890 758
37891 758
37892 758
37893 758
37894 758
37895 758
37896 758
37897 758
37898 758
37899 758
37900 758
37901 759
37902 759
37903 759
37904 759
37905 759
37906 759
37907 759
37908 759
37909 759
37910 759
37911 759
37912 759
37913 759
37914 759
37915 759
37916 759
37917 759
37918 759
37919 759
37920 759
37921 759
37922 759
37923 759
37924 759
37925 759
37926 759
37927 759
37928 759
37929 759
37930 759
37931 759
37932 759
37933 759
37934 759
37935 759
37936 759
37937 759
37938 759
37939 759
37940 759
37941 759
37942 759
37943 759
37944 759
37945 759
37946 759
37947 759
37948 759
37949 759
37950 759
37951 760
37952 760
37953 760
37954 760
37955 760
37956 760
37957 760
37958 760
37959 760
37960 760
37961 760
37962 760
37963 760
37964 760
37965 760
37966 760
37967 760
37968 760
37969 760
37970 760
37971 760
37972 760
37973 760
37974 760
37975 760
37976 760
37977 760
37978 760
37979 760
37980 760
37981 760
37982 760
37983 760
37984 760
37985 760
37986 760
37987 760
37988 760
37989 760
37990 760
37991 760
37992 760
37993 760
37994 760
37995 760
37996 760
37997 760
37998 760
37999 760
38000 760
38001 761
38002 761
38003 761
38004 761
38005 761
38006 761
38007 761
38008 761
38009 761
38010 761
38011 761
38012 761
38013 761
38014 761
38015 761
38016 761
38017 761
38018 761
38019 761
38020 761
38021 761
38022 761
38023 761
38024 761
38025 761
38026 761
38027 761
38028 761
38029 761
38030 761
38031 761
38032 761
38033 761
38034 761
38035 761
38036 761
38037 761
38038 761
38039 761
38040 761
38041 761
38042 761
38043 761
38044 761
38045 761
38046 761
38047 761
38048 761
38049 761
38050 761
38051 762
38052 762
38053 762
38054 762
38055 762
38056 762
38057 762
38058 762
38059 762
38060 762
38061 762
38062 762
38063 762
38064 762
38065 762
38066 762
38067 762
38068 762
38069 762
38070 762
38071 762
38072 762
38073 762
38074 762
38075 762
38076 762
38077 762
38078 762
38079 762
38080 762
38081 762
38082 762
38083 762
38084 762
38085 762
38086 762
38087 762
38088 762
38089 762
38090 762
38091 762
38092 762
38093 762
38094 762
38095 762
38096 762
38097 762
38098 762
38099 762
38100 762
38101 763
38102 763
38103 763
38104 763
38105 763
38106 763
38107 763
38108 763
38109 763
38110 763
38111 763
38112 763
38113 763
38114 763
38115 763
38116 763
38117 763
38118 763
38119 763
38120 763
38121 763
38122 763
38123 763
38124 763
38125 763
38126 763
38127 763
38128 763
38129 763
38130 763
38131 763
38132 763
38133 763
38134 763
38135 763
38136 763
38137 763
38138 763
38139 763
38140 763
38141 763
38142 763
38143 763
38144 763
38145 763
38146 763
38147 763
38148 763
38149 763
38150 763
38151 764
38152 764
38153 764
38154 764
38155 764
38156 764
38157 764
38158 764
38159 764
38160 764
38161 764
38162 764
38163 764
38164 764
38165 764
38166 764
38167 764
38168 764
38169 764
38170 764
38171 764
38172 764
38173 764
38174 764
38175 764
38176 764
38177 764
38178 764
38179 764
38180 764
38181 764
38182 764
38183 764
38184 764
38185 764
38186 764
38187 764
38188 764
38189 764
38190 764
38191 764
38192 764
38193 764
38194 764
38195 764
38196 764
38197 764
38198 764
38199 764
38200 764
38201 765
38202 765
38203 765
38204 765
38205 765
38206 765
38207 765
38208 765
38209 765
38210 765
38211 765
38212 765
38213 765
38214 765
38215 765
38216 765
38217 765
38218 765
38219 765
38220 765
38221 765
38222 765
38223 765
38224 765
38225 765
38226 765
38227 765
38228 765
38229 765
38230 765
38231 765
38232 765
38233 765
38234 765
38235 765
38236 765
38237 765
38238 765
38239 765
38240 765
38241 765
38242 765
38243 765
38244 765
38245 765
38246 765
38247 765
38248 765
38249 765
38250 765
38251 766
38252 766
38253 766
38254 766
38255 766
38256 766
38257 766
38258 766
38259 766
38260 766
38261 766
38262 766
38263 766
38264 766
38265 766
38266 766
38267 766
38268 766
38269 766
38270 766
38271 766
38272 766
38273 766
38274 766
38275 766
38276 766
38277 766
38278 766
38279 766
38280 766
38281 766
38282 766
38283 766
38284 766
38285 766
38286 766
38287 766
38288 766
38289 766
38290 766
38291 766
38292 766
38293 766
38294 766
38295 766
38296 766
38297 766
38298 766
38299 766
38300 766
38301 767
38302 767
38303 767
38304 767
38305 767
38306 767
38307 767
38308 767
38309 767
38310 767
38311 767
38312 767
38313 767
38314 767
38315 767
38316 767
38317 767
38318 767
38319 767
38320 767
38321 767
38322 767
38323 767
38324 767
38325 767
38326 767
38327 767
38328 767
38329 767
38330 767
38331 767
38332 767
38333 767
38334 767
38335 767
38336 767
38337 767
38338 767
38339 767
38340 767
38341 767
38342 767
38343 767
38344 767
38345 767
38346 767
38347 767
38348 767
38349 767
38350 767
38351 768
38352 768
38353 768
38354 768
38355 768
38356 768
38357 768
38358 768
38359 768
38360 768
38361 768
38362 768
38363 768
38364 768
38365 768
38366 768
38367 768
38368 768
38369 768
38370 768
38371 768
38372 768
38373 768
38374 768
38375 768
38376 768
38377 768
38378 768
38379 768
38380 768
38381 768
38382 768
38383 768
38384 768
38385 768
38386 768
38387 768
38388 768
38389 768
38390 768
38391 768
38392 768
38393 768
38394 768
38395 768
38396 768
38397 768
38398 768
38399 768
38400 768
38401 769
38402 769
38403 769
38404 769
38405 769
38406 769
38407 769
38408 769
38409 769
38410 769
38411 769
38412 769
38413 769
38414 769
38415 769
38416 769
38417 769
38418 769
38419 769
38420 769
38421 769
38422 769
38423 769
38424 769
38425 769
38426 769
38427 769
38428 769
38429 769
38430 769
38431 769
38432 769
38433 769
38434 769
38435 769
38436 769
38437 769
38438 769
38439 769
38440 769
38441 769
38442 769
38443 769
38444 769
38445 769
38446 769
38447 769
38448 769
38449 769
38450 769
38451 770
38452 770
38453 770
38454 770
38455 770
38456 770
38457 770
38458 770
38459 770
38460 770
38461 770
38462 770
38463 770
38464 770
38465 770
38466 770
38467 770
38468 770
38469 770
38470 770
38471 770
38472 770
38473 770
38474 770
38475 770
38476 770
38477 770
38478 770
38479 770
38480 770
38481 770
38482 770
38483 770
38484 770
38485 770
38486 770
38487 770
38488 770
38489 770
38490 770
38491 770
38492 770
38493 770
38494 770
38495 770
38496 770
38497 770
38498 770
38499 770
38500 770
38501 771
38502 771
38503 771
38504 771
38505 771
38506 771
38507 771
38508 771
38509 771
38510 771
38511 771
38512 771
38513 771
38514 771
38515 771
38516 771
38517 771
38518 771
38519 771
38520 771
38521 771
38522 771
38523 771
38524 771
38525 771
38526 771
38527 771
38528 771
38529 771
38530 771
38531 771
38532 771
38533 771
38534 771
38535 771
38536 771
38537 771
38538 771
38539 771
38540 771
38541 771
38542 771
38543 771
38544 771
38545 771
38546 771
38547 771
38548 771
38549 771
38550 771
38551 772
38552 772
38553 772
38554 772
38555 772
38556 772
38557 772
38558 772
38559 772
38560 772
38561 772
38562 772
38563 772
38564 772
38565 772
38566 772
38567 772
38568 772
38569 772
38570 772
38571 772
38572 772
38573 772
38574 772
38575 772
38576 772
38577 772
38578 772
38579 772
38580 772
38581 772
38582 772
38583 772
38584 772
38585 772
38586 772
38587 772
38588 772
38589 772
38590 772
38591 772
38592 772
38593 772
38594 772
38595 772
38596 772
38597 772
38598 772
38599 772
38600 772
38601 773
38602 773
38603 773
38604 773
38605 773
38606 773
38607 773
38608 773
38609 773
38610 773
38611 773
38612 773
38613 773
38614 773
38615 773
38616 773
38617 773
38618 773
38619 773
38620 773
38621 773
38622 773
38623 773
38624 773
38625 773
38626 773
38627 773
38628 773
38629 773
38630 773
38631 773
38632 773
38633 773
38634 773
38635 773
38636 773
38637 773
38638 773
38639 773
38640 773
38641 773
38642 773
38643 773
38644 773
38645 773
38646 773
38647 773
38648 773
38649 773
38650 773
38651 774
38652 774
38653 774
38654 774
38655 774
38656 774
38657 774
38658 774
38659 774
38660 774
38661 774
38662 774
38663 774
38664 774
38665 774
38666 774
38667 774
38668 774
38669 774
38670 774
38671 774
38672 774
38673 774
38674 774
38675 774
38676 774
38677 774
38678 774
38679 774
38680 774
38681 774
38682 774
38683 774
38684 774
38685 774
38686 774
38687 774
38688 774
38689 774
38690 774
38691 774
38692 774
38693 774
38694 774
38695 774
38696 774
38697 774
38698 774
38699 774
38700 774
38701 775
38702 775
38703 775
38704 775
38705 775
38706 775
38707 775
38708 775
38709 775
38710 775
38711 775
38712 775
38713 775
38714 775
38715 775
38716 775
38717 775
38718 775
38719 775
38720 775
38721 775
38722 775
38723 775
38724 775
38725 775
38726 775
38727 775
38728 775
38729 775
38730 775
38731 775
38732 775
38733 775
38734 775
38735 775
38736 775
38737 775
38738 775
38739 775
38740 775
38741 775
38742 775
38743 775
38744 775
38745 775
38746 775
38747 775
38748 775
38749 775
38750 775
38751 776
38752 776
38753 776
38754 776
38755 776
38756 776
38757 776
38758 776
38759 776
38760 776
38761 776
38762 776
38763 776
38764 776
38765 776
38766 776
38767 776
38768 776
38769 776
38770 776
38771 776
38772 776
38773 776
38774 776
38775 776
38776 776
38777 776
38778 776
38779 776
38780 776
38781 776
38782 776
38783 776
38784 776
38785 776
38786 776
38787 776
38788 776
38789 776
38790 776
38791 776
38792 776
38793 776
38794 776
38795 776
38796 776
38797 776
38798 776
38799 776
38800 776
38801 777
38802 777
38803 777
38804 777
38805 777
38806 777
38807 777
38808 777
38809 777
38810 777
38811 777
38812 777
38813 777
38814 777
38815 777
38816 777
38817 777
38818 777
38819 777
38820 777
38821 777
38822 777
38823 777
38824 777
38825 777
38826 777
38827 777
38828 777
38829 777
38830 777
38831 777
38832 777
38833 777
38834 777
38835 777
38836 777
38837 777
38838 777
38839 777
38840 777
38841 777
38842 777
38843 777
38844 777
38845 777
38846 777
38847 777
38848 777
38849 777
38850 777
38851 778
38852 778
38853 778
38854 778
38855 778
38856 778
38857 778
38858 778
38859 778
38860 778
38861 778
38862 778
38863 778
38864 778
38865 778
38866 778
38867 778
38868 778
38869 778
38870 778
38871 778
38872 778
38873 778
38874 778
38875 778
38876 778
38877 778
38878 778
38879 778
38880 778
38881 778
38882 778
38883 778
38884 778
38885 778
38886 778
38887 778
38888 778
38889 778
38890 778
38891 778
38892 778
38893 778
38894 778
38895 778
38896 778
38897 778
38898 778
38899 778
38900 778
38901 779
38902 779
38903 779
38904 779
38905 779
38906 779
38907 779
38908 779
38909 779
38910 779
38911 779
38912 779
38913 779
38914 779
38915 779
38916 779
38917 779
38918 779
38919 779
38920 779
38921 779
38922 779
38923 779
38924 779
38925 779
38926 779
38927 779
38928 779
38929 779
38930 779
38931 779
38932 779
38933 779
38934 779
38935 779
38936 779
38937 779
38938 779
38939 779
38940 779
38941 779
38942 779
38943 779
38944 779
38945 779
38946 779
38947 779
38948 779
38949 779
38950 779
38951 780
38952 780
38953 780
38954 780
38955 780
38956 780
38957 780
38958 780
38959 780
38960 780
38961 780
38962 780
38963 780
38964 780
38965 780
38966 780
38967 780
38968 780
38969 780
38970 780
38971 780
38972 780
38973 780
38974 780
38975 780
38976 780
38977 780
38978 780
38979 780
38980 780
38981 780
38982 780
38983 780
38984 780
38985 780
38986 780
38987 780
38988 780
38989 780
38990 780
38991 780
38992 780
38993 780
38994 780
38995 780
38996 780
38997 780
38998 780
38999 780
39000 780
39001 781
39002 781
39003 781
39004 781
39005 781
39006 781
39007 781
39008 781
39009 781
39010 781
39011 781
39012 781
39013 781
39014 781
39015 781
39016 781
39017 781
39018 781
39019 781
39020 781
39021 781
39022 781
39023 781
39024 781
39025 781
39026 781
39027 781
39028 781
39029 781
39030 781
39031 781
39032 781
39033 781
39034 781
39035 781
39036 781
39037 781
39038 781
39039 781
39040 781
39041 781
39042 781
39043 781
39044 781
39045 781
39046 781
39047 781
39048 781
39049 781
39050 781
39051 782
39052 782
39053 782
39054 782
39055 782
39056 782
39057 782
39058 782
39059 782
39060 782
39061 782
39062 782
39063 782
39064 782
39065 782
39066 782
39067 782
39068 782
39069 782
39070 782
39071 782
39072 782
39073 782
39074 782
39075 782
39076 782
39077 782
39078 782
39079 782
39080 782
39081 782
39082 782
39083 782
39084 782
39085 782
39086 782
39087 782
39088 782
39089 782
39090 782
39091 782
39092 782
39093 782
39094 782
39095 782
39096 782
39097 782
39098 782
39099 782
39100 782
39101 783
39102 783
39103 783
39104 783
39105 783
39106 783
39107 783
39108 783
39109 783
39110 783
39111 783
39112 783
39113 783
39114 783
39115 783
39116 783
39117 783
39118 783
39119 783
39120 783
39121 783
39122 783
39123 783
39124 783
39125 783
39126 783
39127 783
39128 783
39129 783
39130 783
39131 783
39132 783
39133 783
39134 783
39135 783
39136 783
39137 783
39138 783
39139 783
39140 783
39141 783
39142 783
39143 783
39144 783
39145 783
39146 783
39147 783
39148 783
39149 783
39150 783
39151 784
39152 784
39153 784
39154 784
39155 784
39156 784
39157 784
39158 784
39159 784
39160 784
39161 784
39162 784
39163 784
39164 784
39165 784
39166 784
39167 784
39168 784
39169 784
39170 784
39171 784
39172 784
39173 784
39174 784
39175 784
39176 784
39177 784
39178 784
39179 784
39180 784
39181 784
39182 784
39183 784
39184 784
39185 784
39186 784
39187 784
39188 784
39189 784
39190 784
39191 784
39192 784
39193 784
39194 784
39195 784
39196 784
39197 784
39198 784
39199 784
39200 784
39201 785
39202 785
39203 785
39204 785
39205 785
39206 785
39207 785
39208 785
39209 785
39210 785
39211 785
39212 785
39213 785
39214 785
39215 785
39216 785
39217 785
39218 785
39219 785
39220 785
39221 785
39222 785
39223 785
39224 785
39225 785
39226 785
39227 785
39228 785
39229 785
39230 785
39231 785
39232 785
39233 785
39234 785
39235 785
39236 785
39237 785
39238 785
39239 785
39240 785
39241 785
39242 785
39243 785
39244 785
39245 785
39246 785
39247 785
39248 785
39249 785
39250 785
39251 786
39252 786
39253 786
39254 786
39255 786
39256 786
39257 786
39258 786
39259 786
39260 786
39261 786
39262 786
39263 786
39264 786
39265 786
39266 786
39267 786
39268 786
39269 786
39270 786
39271 786
39272 786
39273 786
39274 786
39275 786
39276 786
39277 786
39278 786
39279 786
39280 786
39281 786
39282 786
39283 786
39284 786
39285 786
39286 786
39287 786
39288 786
39289 786
39290 786
39291 786
39292 786
39293 786
39294 786
39295 786
39296 786
39297 786
39298 786
39299 786
39300 786
39301 787
39302 787
39303 787
39304 787
39305 787
39306 787
39307 787
39308 787
39309 787
39310 787
39311 787
39312 787
39313 787
39314 787
39315 787
39316 787
39317 787
39318 787
39319 787
39320 787
39321 787
39322 787
39323 787
39324 787
39325 787
39326 787
39327 787
39328 787
39329 787
39330 787
39331 787
39332 787
39333 787
39334 787
39335 787
39336 787
39337 787
39338 787
39339 787
39340 787
39341 787
39342 787
39343 787
39344 787
39345 787
39346 787
39347 787
39348 787
39349 787
39350 787
39351 788
39352 788
39353 788
39354 788
39355 788
39356 788
39357 788
39358 788
39359 788
39360 788
39361 788
39362 788
39363 788
39364 788
39365 788
39366 788
39367 788
39368 788
39369 788
39370 788
39371 788
39372 788
39373 788
39374 788
39375 788
39376 788
39377 788
39378 788
39379 788
39380 788
39381 788
39382 788
39383 788
39384 788
39385 788
39386 788
39387 788
39388 788
39389 788
39390 788
39391 788
39392 788
39393 788
39394 788
39395 788
39396 788
39397 788
39398 788
39399 788
39400 788
39401 789
39402 789
39403 789
39404 789
39405 789
39406 789
39407 789
39408 789
39409 789
39410 789
39411 789
39412 789
39413 789
39414 789
39415 789
39416 789
39417 789
39418 789
39419 789
39420 789
39421 789
39422 789
39423 789
39424 789
39425 789
39426 789
39427 789
39428 789
39429 789
39430 789
39431 789
39432 789
39433 789
39434 789
39435 789
39436 789
39437 789
39438 789
39439 789
39440 789
39441 789
39442 789
39443 789
39444 789
39445 789
39446 789
39447 789
39448 789
39449 789
39450 789
39451 790
39452 790
39453 790
39454 790
39455 790
39456 790
39457 790
39458 790
39459 790
39460 790
39461 790
39462 790
39463 790
39464 790
39465 790
39466 790
39467 790
39468 790
39469 790
39470 790
39471 790
39472 790
39473 790
39474 790
39475 790
39476 790
39477 790
39478 790
39479 790
39480 790
39481 790
39482 790
39483 790
39484 790
39485 790
39486 790
39487 790
39488 790
39489 790
39490 790
39491 790
39492 790
39493 790
39494 790
39495 790
39496 790
39497 790
39498 790
39499 790
39500 790
39501 791
39502 791
39503 791
39504 791
39505 791
39506 791
39507 791
39508 791
39509 791
39510 791
39511 791
39512 791
39513 791
39514 791
39515 791
39516 791
39517 791
39518 791
39519 791
39520 791
39521 791
39522 791
39523 791
39524 791
39525 791
39526 791
39527 791
39528 791
39529 791
39530 791
39531 791
39532 791
39533 791
39534 791
39535 791
39536 791
39537 791
39538 791
39539 791
39540 791
39541 791
39542 791
39543 791
39544 791
39545 791
39546 791
39547 791
39548 791
39549 791
39550 791
39551 792
39552 792
39553 792
39554 792
39555 792
39556 792
39557 792
39558 792
39559 792
39560 792
39561 792
39562 792
39563 792
39564 792
39565 792
39566 792
39567 792
39568 792
39569 792
39570 792
39571 792
39572 792
39573 792
39574 792
39575 792
39576 792
39577 792
39578 792
39579 792
39580 792
39581 792
39582 792
39583 792
39584 792
39585 792
39586 792
39587 792
39588 792
39589 792
39590 792
39591 792
39592 792
39593 792
39594 792
39595 792
39596 792
39597 792
39598 792
39599 792
39600 792
39601 793
39602 793
39603 793
39604 793
39605 793
39606 793
39607 793
39608 793
39609 793
39610 793
39611 793
39612 793
39613 793
39614 793
39615 793
39616 793
39617 793
39618 793
39619 793
39620 793
39621 793
39622 793
39623 793
39624 793
39625 793
39626 793
39627 793
39628 793
39629 793
39630 793
39631 793
39632 793
39633 793
39634 793
39635 793
39636 793
39637 793
39638 793
39639 793
39640 793
39641 793
39642 793
39643 793
39644 793
39645 793
39646 793
39647 793
39648 793
39649 793
39650 793
39651 794
39652 794
39653 794
39654 794
39655 794
39656 794
39657 794
39658 794
39659 794
39660 794
39661 794
39662 794
39663 794
39664 794
39665 794
39666 794
39667 794
39668 794
39669 794
39670 794
39671 794
39672 794
39673 794
39674 794
39675 794
39676 794
39677 794
39678 794
39679 794
39680 794
39681 794
39682 794
39683 794
39684 794
39685 794
39686 794
39687 794
39688 794
39689 794
39690 794
39691 794
39692 794
39693 794
39694 794
39695 794
39696 794
39697 794
39698 794
39699 794
39700 794
39701 795
39702 795
39703 795
39704 795
39705 795
39706 795
39707 795
39708 795
39709 795
39710 795
39711 795
39712 795
39713 795
39714 795
39715 795
39716 795
39717 795
39718 795
39719 795
39720 795
39721 795
39722 795
39723 795
39724 795
39725 795
39726 795
39727 795
39728 795
39729 795
39730 795
39731 795
39732 795
39733 795
39734 795
39735 795
39736 795
39737 795
39738 795
39739 795
39740 795
39741 795
39742 795
39743 795
39744 795
39745 795
39746 795
39747 795
39748 795
39749 795
39750 795
39751 796
39752 796
39753 796
39754 796
39755 796
39756 796
39757 796
39758 796
39759 796
39760 796
39761 796
39762 796
39763 796
39764 796
39765 796
39766 796
39767 796
39768 796
39769 796
39770 796
39771 796
39772 796
39773 796
39774 796
39775 796
39776 796
39777 796
39778 796
39779 796
39780 796
39781 796
39782 796
39783 796
39784 796
39785 796
39786 796
39787 796
39788 796
39789 796
39790 796
39791 796
39792 796
39793 796
39794 796
39795 796
39796 796
39797 796
39798 796
39799 796
39800 796
39801 797
39802 797
39803 797
39804 797
39805 797
39806 797
39807 797
39808 797
39809 797
39810 797
39811 797
39812 797
39813 797
39814 797
39815 797
39816 797
39817 797
39818 797
39819 797
39820 797
39821 797
39822 797
39823 797
39824 797
39825 797
39826 797
39827 797
39828 797
39829 797
39830 797
39831 797
39832 797
39833 797
39834 797
39835 797
39836 797
39837 797
39838 797
39839 797
39840 797
39841 797
39842 797
39843 797
39844 797
39845 797
39846 797
39847 797
39848 797
39849 797
39850 797
39851 798
39852 798
39853 798
39854 798
39855 798
39856 798
39857 798
39858 798
39859 798
39860 798
39861 798
39862 798
39863 798
39864 798
39865 798
39866 798
39867 798
39868 798
39869 798
39870 798
39871 798
39872 798
39873 798
39874 798
39875 798
39876 798
39877 798
39878 798
39879 798
39880 798
39881 798
39882 798
39883 798
39884 798
39885 798
39886 798
39887 798
39888 798
39889 798
39890 798
39891 798
39892 798
39893 798
39894 798
39895 798
39896 798
39897 798
39898 798
39899 798
39900 798
39901 799
39902 799
39903 799
39904 799
39905 799
39906 799
39907 799
39908 799
39909 799
39910 799
39911 799
39912 799
39913 799
39914 799
39915 799
39916 799
39917 799
39918 799
39919 799
39920 799
39921 799
39922 799
39923 799
39924 799
39925 799
39926 799
39927 799
39928 799
39929 799
39930 799
39931 799
39932 799
39933 799
39934 799
39935 799
39936 799
39937 799
39938 799
39939 799
39940 799
39941 799
39942 799
39943 799
39944 799
39945 799
39946 799
39947 799
39948 799
39949 799
39950 799
39951 800
39952 800
39953 800
39954 800
39955 800
39956 800
39957 800
39958 800
39959 800
39960 800
39961 800
39962 800
39963 800
39964 800
39965 800
39966 800
39967 800
39968 800
39969 800
39970 800
39971 800
39972 800
39973 800
39974 800
39975 800
39976 800
39977 800
39978 800
39979 800
39980 800
39981 800
39982 800
39983 800
39984 800
39985 800
39986 800
39987 800
39988 800
39989 800
39990 800
39991 800
39992 800
39993 800
39994 800
39995 800
39996 800
39997 800
39998 800
39999 800
40000 800
40001 801
40002 801
40003 801
40004 801
40005 801
40006 801
40007 801
40008 801
40009 801
40010 801
40011 801
40012 801
40013 801
40014 801
40015 801
40016 801
40017 801
40018 801
40019 801
40020 801
40021 801
40022 801
40023 801
40024 801
40025 801
40026 801
40027 801
40028 801
40029 801
40030 801
40031 801
40032 801
40033 801
40034 801
40035 801
40036 801
40037 801
40038 801
40039 801
40040 801
40041 801
40042 801
40043 801
40044 801
40045 801
40046 801
40047 801
40048 801
40049 801
40050 801
40051 802
40052 802
40053 802
40054 802
40055 802
40056 802
40057 802
40058 802
40059 802
40060 802
40061 802
40062 802
40063 802
40064 802
40065 802
40066 802
40067 802
40068 802
40069 802
40070 802
40071 802
40072 802
40073 802
40074 802
40075 802
40076 802
40077 802
40078 802
40079 802
40080 802
40081 802
40082 802
40083 802
40084 802
40085 802
40086 802
40087 802
40088 802
40089 802
40090 802
40091 802
40092 802
40093 802
40094 802
40095 802
40096 802
40097 802
40098 802
40099 802
40100 802
40101 803
40102 803
40103 803
40104 803
40105 803
40106 803
40107 803
40108 803
40109 803
40110 803
40111 803
40112 803
40113 803
40114 803
40115 803
40116 803
40117 803
40118 803
40119 803
40120 803
40121 803
40122 803
40123 803
40124 803
40125 803
40126 803
40127 803
40128 803
40129 803
40130 803
40131 803
40132 803
40133 803
40134 803
40135 803
40136 803
40137 803
40138 803
40139 803
40140 803
40141 803
40142 803
40143 803
40144 803
40145 803
40146 803
40147 803
40148 803
40149 803
40150 803
40151 804
40152 804
40153 804
40154 804
40155 804
40156 804
40157 804
40158 804
40159 804
40160 804
40161 804
40162 804
40163 804
40164 804
40165 804
40166 804
40167 804
40168 804
40169 804
40170 804
40171 804
40172 804
40173 804
40174 804
40175 804
40176 804
40177 804
40178 804
40179 804
40180 804
40181 804
40182 804
40183 804
40184 804
40185 804
40186 804
40187 804
40188 804
40189 804
40190 804
40191 804
40192 804
40193 804
40194 804
40195 804
40196 804
40197 804
40198 804
40199 804
40200 804
40201 805
40202 805
40203 805
40204 805
40205 805
40206 805
40207 805
40208 805
40209 805
40210 805
40211 805
40212 805
40213 805
40214 805
40215 805
40216 805
40217 805
40218 805
40219 805
40220 805
40221 805
40222 805
40223 805
40224 805
40225 805
40226 805
40227 805
40228 805
40229 805
40230 805
40231 805
40232 805
40233 805
40234 805
40235 805
40236 805
40237 805
40238 805
40239 805
40240 805
40241 805
40242 805
40243 805
40244 805
40245 805
40246 805
40247 805
40248 805
40249 805
40250 805
40251 806
40252 806
40253 806
40254 806
40255 806
40256 806
40257 806
40258 806
40259 806
40260 806
40261 806
40262 806
40263 806
40264 806
40265 806
40266 806
40267 806
40268 806
40269 806
40270 806
40271 806
40272 806
40273 806
40274 806
40275 806
40276 806
40277 806
40278 806
40279 806
40280 806
40281 806
40282 806
40283 806
40284 806
40285 806
40286 806
40287 806
40288 806
40289 806
40290 806
40291 806
40292 806
40293 806
40294 806
40295 806
40296 806
40297 806
40298 806
40299 806
40300 806
40301 807
40302 807
40303 807
40304 807
40305 807
40306 807
40307 807
40308 807
40309 807
40310 807
40311 807
40312 807
40313 807
40314 807
40315 807
40316 807
40317 807
40318 807
40319 807
40320 807
40321 807
40322 807
40323 807
40324 807
40325 807
40326 807
40327 807
40328 807
40329 807
40330 807
40331 807
40332 807
40333 807
40334 807
40335 807
40336 807
40337 807
40338 807
40339 807
40340 807
40341 807
40342 807
40343 807
40344 807
40345 807
40346 807
40347 807
40348 807
40349 807
40350 807
40351 808
40352 808
40353 808
40354 808
40355 808
40356 808
40357 808
40358 808
40359 808
40360 808
40361 808
40362 808
40363 808
40364 808
40365 808
40366 808
40367 808
40368 808
40369 808
40370 808
40371 808
40372 808
40373 808
40374 808
40375 808
40376 808
40377 808
40378 808
40379 808
40380 808
40381 808
40382 808
40383 808
40384 808
40385 808
40386 808
40387 808
40388 808
40389 808
40390 808
40391 808
40392 808
40393 808
40394 808
40395 808
40396 808
40397 808
40398 808
40399 808
40400 808
40401 809
40402 809
40403 809
40404 809
40405 809
40406 809
40407 809
40408 809
40409 809
40410 809
40411 809
40412 809
40413 809
40414 809
40415 809
40416 809
40417 809
40418 809
40419 809
40420 809
40421 809
40422 809
40423 809
40424 809
40425 809
40426 809
40427 809
40428 809
40429 809
40430 809
40431 809
40432 809
40433 809
40434 809
40435 809
40436 809
40437 809
40438 809
40439 809
40440 809
40441 809
40442 809
40443 809
40444 809
40445 809
40446 809
40447 809
40448 809
40449 809
40450 809
40451 810
40452 810
40453 810
40454 810
40455 810
40456 810
40457 810
40458 810
40459 810
40460 810
40461 810
40462 810
40463 810
40464 810
40465 810
40466 810
40467 810
40468 810
40469 810
40470 810
40471 810
40472 810
40473 810
40474 810
40475 810
40476 810
40477 810
40478 810
40479 810
40480 810
40481 810
40482 810
40483 810
40484 810
40485 810
40486 810
40487 810
40488 810
40489 810
40490 810
40491 810
40492 810
40493 810
40494 810
40495 810
40496 810
40497 810
40498 810
40499 810
40500 810
40501 811
40502 811
40503 811
40504 811
40505 811
40506 811
40507 811
40508 811
40509 811
40510 811
40511 811
40512 811
40513 811
40514 811
40515 811
40516 811
40517 811
40518 811
40519 811
40520 811
40521 811
40522 811
40523 811
40524 811
40525 811
40526 811
40527 811
40528 811
40529 811
40530 811
40531 811
40532 811
40533 811
40534 811
40535 811
40536 811
40537 811
40538 811
40539 811
40540 811
40541 811
40542 811
40543 811
40544 811
40545 811
40546 811
40547 811
40548 811
40549 811
40550 811
40551 812
40552 812
40553 812
40554 812
40555 812
40556 812
40557 812
40558 812
40559 812
40560 812
40561 812
40562 812
40563 812
40564 812
40565 812
40566 812
40567 812
40568 812
40569 812
40570 812
40571 812
40572 812
40573 812
40574 812
40575 812
40576 812
40577 812
40578 812
40579 812
40580 812
40581 812
40582 812
40583 812
40584 812
40585 812
40586 812
40587 812
40588 812
40589 812
40590 812
40591 812
40592 812
40593 812
40594 812
40595 812
40596 812
40597 812
40598 812
40599 812
40600 812
40601 813
40602 813
40603 813
40604 813
40605 813
40606 813
40607 813
40608 813
40609 813
40610 813
40611 813
40612 813
40613 813
40614 813
40615 813
40616 813
40617 813
40618 813
40619 813
40620 813
40621 813
40622 813
40623 813
40624 813
40625 813
40626 813
40627 813
40628 813
40629 813
40630 813
40631 813
40632 813
40633 813
40634 813
40635 813
40636 813
40637 813
40638 813
40639 813
40640 813
40641 813
40642 813
40643 813
40644 813
40645 813
40646 813
40647 813
40648 813
40649 813
40650 813
40651 814
40652 814
40653 814
40654 814
40655 814
40656 814
40657 814
40658 814
40659 814
40660 814
40661 814
40662 814
40663 814
40664 814
40665 814
40666 814
40667 814
40668 814
40669 814
40670 814
40671 814
40672 814
40673 814
40674 814
40675 814
40676 814
40677 814
40678 814
40679 814
40680 814
40681 814
40682 814
40683 814
40684 814
40685 814
40686 814
40687 814
40688 814
40689 814
40690 814
40691 814
40692 814
40693 814
40694 814
40695 814
40696 814
40697 814
40698 814
40699 814
40700 814
40701 815
40702 815
40703 815
40704 815
40705 815
40706 815
40707 815
40708 815
40709 815
40710 815
40711 815
40712 815
40713 815
40714 815
40715 815
40716 815
40717 815
40718 815
40719 815
40720 815
40721 815
40722 815
40723 815
40724 815
40725 815
40726 815
40727 815
40728 815
40729 815
40730 815
40731 815
40732 815
40733 815
40734 815
40735 815
40736 815
40737 815
40738 815
40739 815
40740 815
40741 815
40742 815
40743 815
40744 815
40745 815
40746 815
40747 815
40748 815
40749 815
40750 815
40751 816
40752 816
40753 816
40754 816
40755 816
40756 816
40757 816
40758 816
40759 816
40760 816
40761 816
40762 816
40763 816
40764 816
40765 816
40766 816
40767 816
40768 816
40769 816
40770 816
40771 816
40772 816
40773 816
40774 816
40775 816
40776 816
40777 816
40778 816
40779 816
40780 816
40781 816
40782 816
40783 816
40784 816
40785 816
40786 816
40787 816
40788 816
40789 816
40790 816
40791 816
40792 816
40793 816
40794 816
40795 816
40796 816
40797 816
40798 816
40799 816
40800 816
40801 817
40802 817
40803 817
40804 817
40805 817
40806 817
40807 817
40808 817
40809 817
40810 817
40811 817
40812 817
40813 817
40814 817
40815 817
40816 817
40817 817
40818 817
40819 817
40820 817
40821 817
40822 817
40823 817
40824 817
40825 817
40826 817
40827 817
40828 817
40829 817
40830 817
40831 817
40832 817
40833 817
40834 817
40835 817
40836 817
40837 817
40838 817
40839 817
40840 817
40841 817
40842 817
40843 817
40844 817
40845 817
40846 817
40847 817
40848 817
40849 817
40850 817
40851 818
40852 818
40853 818
40854 818
40855 818
40856 818
40857 818
40858 818
40859 818
40860 818
40861 818
40862 818
40863 818
40864 818
40865 818
40866 818
40867 818
40868 818
40869 818
40870 818
40871 818
40872 818
40873 818
40874 818
40875 818
40876 818
40877 818
40878 818
40879 818
40880 818
40881 818
40882 818
40883 818
40884 818
40885 818
40886 818
40887 818
40888 818
40889 818
40890 818
40891 818
40892 818
40893 818
40894 818
40895 818
40896 818
40897 818
40898 818
40899 818
40900 818
40901 819
40902 819
40903 819
40904 819
40905 819
40906 819
40907 819
40908 819
40909 819
40910 819
40911 819
40912 819
40913 819
40914 819
40915 819
40916 819
40917 819
40918 819
40919 819
40920 819
40921 819
40922 819
40923 819
40924 819
40925 819
40926 819
40927 819
40928 819
40929 819
40930 819
40931 819
40932 819
40933 819
40934 819
40935 819
40936 819
40937 819
40938 819
40939 819
40940 819
40941 819
40942 819
40943 819
40944 819
40945 819
40946 819
40947 819
40948 819
40949 819
40950 819
40951 820
40952 820
40953 820
40954 820
40955 820
40956 820
40957 820
40958 820
40959 820
40960 820
40961 820
40962 820
40963 820
40964 820
40965 820
40966 820
40967 820
40968 820
40969 820
40970 820
40971 820
40972 820
40973 820
40974 820
40975 820
40976 820
40977 820
40978 820
40979 820
40980 820
40981 820
40982 820
40983 820
40984 820
40985 820
40986 820
40987 820
40988 820
40989 820
40990 820
40991 820
40992 820
40993 820
40994 820
40995 820
40996 820
40997 820
40998 820
40999 820
41000 820
41001 821
41002 821
41003 821
41004 821
41005 821
41006 821
41007 821
41008 821
41009 821
41010 821
41011 821
41012 821
41013 821
41014 821
41015 821
41016 821
41017 821
41018 821
41019 821
41020 821
41021 821
41022 821
41023 821
41024 821
41025 821
41026 821
41027 821
41028 821
41029 821
41030 821
41031 821
41032 821
41033 821
41034 821
41035 821
41036 821
41037 821
41038 821
41039 821
41040 821
41041 821
41042 821
41043 821
41044 821
41045 821
41046 821
41047 821
41048 821
41049 821
41050 821
41051 822
41052 822
41053 822
41054 822
41055 822
41056 822
41057 822
41058 822
41059 822
41060 822
41061 822
41062 822
41063 822
41064 822
41065 822
41066 822
41067 822
41068 822
41069 822
41070 822
41071 822
41072 822
41073 822
41074 822
41075 822
41076 822
41077 822
41078 822
41079 822
41080 822
41081 822
41082 822
41083 822
41084 822
41085 822
41086 822
41087 822
41088 822
41089 822
41090 822
41091 822
41092 822
41093 822
41094 822
41095 822
41096 822
41097 822
41098 822
41099 822
41100 822
41101 823
41102 823
41103 823
41104 823
41105 823
41106 823
41107 823
41108 823
41109 823
41110 823
41111 823
41112 823
41113 823
41114 823
41115 823
41116 823
41117 823
41118 823
41119 823
41120 823
41121 823
41122 823
41123 823
41124 823
41125 823
41126 823
41127 823
41128 823
41129 823
41130 823
41131 823
41132 823
41133 823
41134 823
41135 823
41136 823
41137 823
41138 823
41139 823
41140 823
41141 823
41142 823
41143 823
41144 823
41145 823
41146 823
41147 823
41148 823
41149 823
41150 823
41151 824
41152 824
41153 824
41154 824
41155 824
41156 824
41157 824
41158 824
41159 824
41160 824
41161 824
41162 824
41163 824
41164 824
41165 824
41166 824
41167 824
41168 824
41169 824
41170 824
41171 824
41172 824
41173 824
41174 824
41175 824
41176 824
41177 824
41178 824
41179 824
41180 824
41181 824
41182 824
41183 824
41184 824
41185 824
41186 824
41187 824
41188 824
41189 824
41190 824
41191 824
41192 824
41193 824
41194 824
41195 824
41196 824
41197 824
41198 824
41199 824
41200 824
41201 825
41202 825
41203 825
41204 825
41205 825
41206 825
41207 825
41208 825
41209 825
41210 825
41211 825
41212 825
41213 825
41214 825
41215 825
41216 825
41217 825
41218 825
41219 825
41220 825
41221 825
41222 825
41223 825
41224 825
41225 825
41226 825
41227 825
41228 825
41229 825
41230 825
41231 825
41232 825
41233 825
41234 825
41235 825
41236 825
41237 825
41238 825
41239 825
41240 825
41241 825
41242 825
41243 825
41244 825
41245 825
41246 825
41247 825
41248 825
41249 825
41250 825
41251 826
41252 826
41253 826
41254 826
41255 826
41256 826
41257 826
41258 826
41259 826
41260 826
41261 826
41262 826
41263 826
41264 826
41265 826
41266 826
41267 826
41268 826
41269 826
41270 826
41271 826
41272 826
41273 826
41274 826
41275 826
41276 826
41277 826
41278 826
41279 826
41280 826
41281 826
41282 826
41283 826
41284 826
41285 826
41286 826
41287 826
41288 826
41289 826
41290 826
41291 826
41292 826
41293 826
41294 826
41295 826
41296 826
41297 826
41298 826
41299 826
41300 826
41301 827
41302 827
41303 827
41304 827
41305 827
41306 827
41307 827
41308 827
41309 827
41310 827
41311 827
41312 827
41313 827
41314 827
41315 827
41316 827
41317 827
41318 827
41319 827
41320 827
41321 827
41322 827
41323 827
41324 827
41325 827
41326 827
41327 827
41328 827
41329 827
41330 827
41331 827
41332 827
41333 827
41334 827
41335 827
41336 827
41337 827
41338 827
41339 827
41340 827
41341 827
41342 827
41343 827
41344 827
41345 827
41346 827
41347 827
41348 827
41349 827
41350 827
41351 828
41352 828
41353 828
41354 828
41355 828
41356 828
41357 828
41358 828
41359 828
41360 828
41361 828
41362 828
41363 828
41364 828
41365 828
41366 828
41367 828
41368 828
41369 828
41370 828
41371 828
41372 828
41373 828
41374 828
41375 828
41376 828
41377 828
41378 828
41379 828
41380 828
41381 828
41382 828
41383 828
41384 828
41385 828
41386 828
41387 828
41388 828
41389 828
41390 828
41391 828
41392 828
41393 828
41394 828
41395 828
41396 828
41397 828
41398 828
41399 828
41400 828
41401 829
41402 829
41403 829
41404 829
41405 829
41406 829
41407 829
41408 829
41409 829
41410 829
41411 829
41412 829
41413 829
41414 829
41415 829
41416 829
41417 829
41418 829
41419 829
41420 829
41421 829
41422 829
41423 829
41424 829
41425 829
41426 829
41427 829
41428 829
41429 829
41430 829
41431 829
41432 829
41433 829
41434 829
41435 829
41436 829
41437 829
41438 829
41439 829
41440 829
41441 829
41442 829
41443 829
41444 829
41445 829
41446 829
41447 829
41448 829
41449 829
41450 829
41451 830
41452 830
41453 830
41454 830
41455 830
41456 830
41457 830
41458 830
41459 830
41460 830
41461 830
41462 830
41463 830
41464 830
41465 830
41466 830
41467 830
41468 830
41469 830
41470 830
41471 830
41472 830
41473 830
41474 830
41475 830
41476 830
41477 830
41478 830
41479 830
41480 830
41481 830
41482 830
41483 830
41484 830
41485 830
41486 830
41487 830
41488 830
41489 830
41490 830
41491 830
41492 830
41493 830
41494 830
41495 830
41496 830
41497 830
41498 830
41499 830
41500 830
41501 831
41502 831
41503 831
41504 831
41505 831
41506 831
41507 831
41508 831
41509 831
41510 831
41511 831
41512 831
41513 831
41514 831
41515 831
41516 831
41517 831
41518 831
41519 831
41520 831
41521 831
41522 831
41523 831
41524 831
41525 831
41526 831
41527 831
41528 831
41529 831
41530 831
41531 831
41532 831
41533 831
41534 831
41535 831
41536 831
41537 831
41538 831
41539 831
41540 831
41541 831
41542 831
41543 831
41544 831
41545 831
41546 831
41547 831
41548 831
41549 831
41550 831
41551 832
41552 832
41553 832
41554 832
41555 832
41556 832
41557 832
41558 832
41559 832
41560 832
41561 832
41562 832
41563 832
41564 832
41565 832
41566 832
41567 832
41568 832
41569 832
41570 832
41571 832
41572 832
41573 832
41574 832
41575 832
41576 832
41577 832
41578 832
41579 832
41580 832
41581 832
41582 832
41583 832
41584 832
41585 832
41586 832
41587 832
41588 832
41589 832
41590 832
41591 832
41592 832
41593 832
41594 832
41595 832
41596 832
41597 832
41598 832
41599 832
41600 832
41601 833
41602 833
41603 833
41604 833
41605 833
41606 833
41607 833
41608 833
41609 833
41610 833
41611 833
41612 833
41613 833
41614 833
41615 833
41616 833
41617 833
41618 833
41619 833
41620 833
41621 833
41622 833
41623 833
41624 833
41625 833
41626 833
41627 833
41628 833
41629 833
41630 833
41631 833
41632 833
41633 833
41634 833
41635 833
41636 833
41637 833
41638 833
41639 833
41640 833
41641 833
41642 833
41643 833
41644 833
41645 833
41646 833
41647 833
41648 833
41649 833
41650 833
41651 834
41652 834
41653 834
41654 834
41655 834
41656 834
41657 834
41658 834
41659 834
41660 834
41661 834
41662 834
41663 834
41664 834
41665 834
41666 834
41667 834
41668 834
41669 834
41670 834
41671 834
41672 834
41673 834
41674 834
41675 834
41676 834
41677 834
41678 834
41679 834
41680 834
41681 834
41682 834
41683 834
41684 834
41685 834
41686 834
41687 834
41688 834
41689 834
41690 834
41691 834
41692 834
41693 834
41694 834
41695 834
41696 834
41697 834
41698 834
41699 834
41700 834
41701 835
41702 835
41703 835
41704 835
41705 835
41706 835
41707 835
41708 835
41709 835
41710 835
41711 835
41712 835
41713 835
41714 835
41715 835
41716 835
41717 835
41718 835
41719 835
41720 835
41721 835
41722 835
41723 835
41724 835
41725 835
41726 835
41727 835
41728 835
41729 835
41730 835
41731 835
41732 835
41733 835
41734 835
41735 835
41736 835
41737 835
41738 835
41739 835
41740 835
41741 835
41742 835
41743 835
41744 835
41745 835
41746 835
41747 835
41748 835
41749 835
41750 835
41751 836
41752 836
41753 836
41754 836
41755 836
41756 836
41757 836
41758 836
41759 836
41760 836
41761 836
41762 836
41763 836
41764 836
41765 836
41766 836
41767 836
41768 836
41769 836
41770 836
41771 836
41772 836
41773 836
41774 836
41775 836
41776 836
41777 836
41778 836
41779 836
41780 836
41781 836
41782 836
41783 836
41784 836
41785 836
41786 836
41787 836
41788 836
41789 836
41790 836
41791 836
41792 836
41793 836
41794 836
41795 836
41796 836
41797 836
41798 836
41799 836
41800 836
41801 837
41802 837
41803 837
41804 837
41805 837
41806 837
41807 837
41808 837
41809 837
41810 837
41811 837
41812 837
41813 837
41814 837
41815 837
41816 837
41817 837
41818 837
41819 837
41820 837
41821 837
41822 837
41823 837
41824 837
41825 837
41826 837
41827 837
41828 837
41829 837
41830 837
41831 837
41832 837
41833 837
41834 837
41835 837
41836 837
41837 837
41838 837
41839 837
41840 837
41841 837
41842 837
41843 837
41844 837
41845 837
41846 837
41847 837
41848 837
41849 837
41850 837
41851 838
41852 838
41853 838
41854 838
41855 838
41856 838
41857 838
41858 838
41859 838
41860 838
41861 838
41862 838
41863 838
41864 838
41865 838
41866 838
41867 838
41868 838
41869 838
41870 838
41871 838
41872 838
41873 838
41874 838
41875 838
41876 838
41877 838
41878 838
41879 838
41880 838
41881 838
41882 838
41883 838
41884 838
41885 838
41886 838
41887 838
41888 838
41889 838
41890 838
41891 838
41892 838
41893 838
41894 838
41895 838
41896 838
41897 838
41898 838
41899 838
41900 838
41901 839
41902 839
41903 839
41904 839
41905 839
41906 839
41907 839
41908 839
41909 839
41910 839
41911 839
41912 839
41913 839
41914 839
41915 839
41916 839
41917 839
41918 839
41919 839
41920 839
41921 839
41922 839
41923 839
41924 839
41925 839
41926 839
41927 839
41928 839
41929 839
41930 839
41931 839
41932 839
41933 839
41934 839
41935 839
41936 839
41937 839
41938 839
41939 839
41940 839
41941 839
41942 839
41943 839
41944 839
41945 839
41946 839
41947 839
41948 839
41949 839
41950 839
41951 840
41952 840
41953 840
41954 840
41955 840
41956 840
41957 840
41958 840
41959 840
41960 840
41961 840
41962 840
41963 840
41964 840
41965 840
41966 840
41967 840
41968 840
41969 840
41970 840
41971 840
41972 840
41973 840
41974 840
41975 840
41976 840
41977 840
41978 840
41979 840
41980 840
41981 840
41982 840
41983 840
41984 840
41985 840
41986 840
41987 840
41988 840
41989 840
41990 840
41991 840
41992 840
41993 840
41994 840
41995 840
41996 840
41997 840
41998 840
41999 840
42000 840
42001 841
42002 841
42003 841
42004 841
42005 841
42006 841
42007 841
42008 841
42009 841
42010 841
42011 841
42012 841
42013 841
42014 841
42015 841
42016 841
42017 841
42018 841
42019 841
42020 841
42021 841
42022 841
42023 841
42024 841
42025 841
42026 841
42027 841
42028 841
42029 841
42030 841
42031 841
42032 841
42033 841
42034 841
42035 841
42036 841
42037 841
42038 841
42039 841
42040 841
42041 841
42042 841
42043 841
42044 841
42045 841
42046 841
42047 841
42048 841
42049 841
42050 841
42051 842
42052 842
42053 842
42054 842
42055 842
42056 842
42057 842
42058 842
42059 842
42060 842
42061 842
42062 842
42063 842
42064 842
42065 842
42066 842
42067 842
42068 842
42069 842
42070 842
42071 842
42072 842
42073 842
42074 842
42075 842
42076 842
42077 842
42078 842
42079 842
42080 842
42081 842
42082 842
42083 842
42084 842
42085 842
42086 842
42087 842
42088 842
42089 842
42090 842
42091 842
42092 842
42093 842
42094 842
42095 842
42096 842
42097 842
42098 842
42099 842
42100 842
42101 843
42102 843
42103 843
42104 843
42105 843
42106 843
42107 843
42108 843
42109 843
42110 843
42111 843
42112 843
42113 843
42114 843
42115 843
42116 843
42117 843
42118 843
42119 843
42120 843
42121 843
42122 843
42123 843
42124 843
42125 843
42126 843
42127 843
42128 843
42129 843
42130 843
42131 843
42132 843
42133 843
42134 843
42135 843
42136 843
42137 843
42138 843
42139 843
42140 843
42141 843
42142 843
42143 843
42144 843
42145 843
42146 843
42147 843
42148 843
42149 843
42150 843
42151 844
42152 844
42153 844
42154 844
42155 844
42156 844
42157 844
42158 844
42159 844
42160 844
42161 844
42162 844
42163 844
42164 844
42165 844
42166 844
42167 844
42168 844
42169 844
42170 844
42171 844
42172 844
42173 844
42174 844
42175 844
42176 844
42177 844
42178 844
42179 844
42180 844
42181 844
42182 844
42183 844
42184 844
42185 844
42186 844
42187 844
42188 844
42189 844
42190 844
42191 844
42192 844
42193 844
42194 844
42195 844
42196 844
42197 844
42198 844
42199 844
42200 844
42201 845
42202 845
42203 845
42204 845
42205 845
42206 845
42207 845
42208 845
42209 845
42210 845
42211 845
42212 845
42213 845
42214 845
42215 845
42216 845
42217 845
42218 845
42219 845
42220 845
42221 845
42222 845
42223 845
42224 845
42225 845
42226 845
42227 845
42228 845
42229 845
42230 845
42231 845
42232 845
42233 845
42234 845
42235 845
42236 845
42237 845
42238 845
42239 845
42240 845
42241 845
42242 845
42243 845
42244 845
42245 845
42246 845
42247 845
42248 845
42249 845
42250 845
42251 846
42252 846
42253 846
42254 846
42255 846
42256 846
42257 846
42258 846
42259 846
42260 846
42261 846
42262 846
42263 846
42264 846
42265 846
42266 846
42267 846
42268 846
42269 846
42270 846
42271 846
42272 846
42273 846
42274 846
42275 846
42276 846
42277 846
42278 846
42279 846
42280 846
42281 846
42282 846
42283 846
42284 846
42285 846
42286 846
42287 846
42288 846
42289 846
42290 846
42291 846
42292 846
42293 846
42294 846
42295 846
42296 846
42297 846
42298 846
42299 846
42300 846
42301 847
42302 847
42303 847
42304 847
42305 847
42306 847
42307 847
42308 847
42309 847
42310 847
42311 847
42312 847
42313 847
42314 847
42315 847
42316 847
42317 847
42318 847
42319 847
42320 847
42321 847
42322 847
42323 847
42324 847
42325 847
42326 847
42327 847
42328 847
42329 847
42330 847
42331 847
42332 847
42333 847
42334 847
42335 847
42336 847
42337 847
42338 847
42339 847
42340 847
42341 847
42342 847
42343 847
42344 847
42345 847
42346 847
42347 847
42348 847
42349 847
42350 847
42351 848
42352 848
42353 848
42354 848
42355 848
42356 848
42357 848
42358 848
42359 848
42360 848
42361 848
42362 848
42363 848
42364 848
42365 848
42366 848
42367 848
42368 848
42369 848
42370 848
42371 848
42372 848
42373 848
42374 848
42375 848
42376 848
42377 848
42378 848
42379 848
42380 848
42381 848
42382 848
42383 848
42384 848
42385 848
42386 848
42387 848
42388 848
42389 848
42390 848
42391 848
42392 848
42393 848
42394 848
42395 848
42396 848
42397 848
42398 848
42399 848
42400 848
42401 849
42402 849
42403 849
42404 849
42405 849
42406 849
42407 849
42408 849
42409 849
42410 849
42411 849
42412 849
42413 849
42414 849
42415 849
42416 849
42417 849
42418 849
42419 849
42420 849
42421 849
42422 849
42423 849
42424 849
42425 849
42426 849
42427 849
42428 849
42429 849
42430 849
42431 849
42432 849
42433 849
42434 849
42435 849
42436 849
42437 849
42438 849
42439 849
42440 849
42441 849
42442 849
42443 849
42444 849
42445 849
42446 849
42447 849
42448 849
42449 849
42450 849
42451 850
42452 850
42453 850
42454 850
42455 850
42456 850
42457 850
42458 850
42459 850
42460 850
42461 850
42462 850
42463 850
42464 850
42465 850
42466 850
42467 850
42468 850
42469 850
42470 850
42471 850
42472 850
42473 850
42474 850
42475 850
42476 850
42477 850
42478 850
42479 850
42480 850
42481 850
42482 850
42483 850
42484 850
42485 850
42486 850
42487 850
42488 850
42489 850
42490 850
42491 850
42492 850
42493 850
42494 850
42495 850
42496 850
42497 850
42498 850
42499 850
42500 850
42501 851
42502 851
42503 851
42504 851
42505 851
42506 851
42507 851
42508 851
42509 851
42510 851
42511 851
42512 851
42513 851
42514 851
42515 851
42516 851
42517 851
42518 851
42519 851
42520 851
42521 851
42522 851
42523 851
42524 851
42525 851
42526 851
42527 851
42528 851
42529 851
42530 851
42531 851
42532 851
42533 851
42534 851
42535 851
42536 851
42537 851
42538 851
42539 851
42540 851
42541 851
42542 851
42543 851
42544 851
42545 851
42546 851
42547 851
42548 851
42549 851
42550 851
42551 852
42552 852
42553 852
42554 852
42555 852
42556 852
42557 852
42558 852
42559 852
42560 852
42561 852
42562 852
42563 852
42564 852
42565 852
42566 852
42567 852
42568 852
42569 852
42570 852
42571 852
42572 852
42573 852
42574 852
42575 852
42576 852
42577 852
42578 852
42579 852
42580 852
42581 852
42582 852
42583 852
42584 852
42585 852
42586 852
42587 852
42588 852
42589 852
42590 852
42591 852
42592 852
42593 852
42594 852
42595 852
42596 852
42597 852
42598 852
42599 852
42600 852
42601 853
42602 853
42603 853
42604 853
42605 853
42606 853
42607 853
42608 853
42609 853
42610 853
42611 853
42612 853
42613 853
42614 853
42615 853
42616 853
42617 853
42618 853
42619 853
42620 853
42621 853
42622 853
42623 853
42624 853
42625 853
42626 853
42627 853
42628 853
42629 853
42630 853
42631 853
42632 853
42633 853
42634 853
42635 853
42636 853
42637 853
42638 853
42639 853
42640 853
42641 853
42642 853
42643 853
42644 853
42645 853
42646 853
42647 853
42648 853
42649 853
42650 853
42651 854
42652 854
42653 854
42654 854
42655 854
42656 854
42657 854
42658 854
42659 854
42660 854
42661 854
42662 854
42663 854
42664 854
42665 854
42666 854
42667 854
42668 854
42669 854
42670 854
42671 854
42672 854
42673 854
42674 854
42675 854
42676 854
42677 854
42678 854
42679 854
42680 854
42681 854
42682 854
42683 854
42684 854
42685 854
42686 854
42687 854
42688 854
42689 854
42690 854
42691 854
42692 854
42693 854
42694 854
42695 854
42696 854
42697 854
42698 854
42699 854
42700 854
42701 855
42702 855
42703 855
42704 855
42705 855
42706 855
42707 855
42708 855
42709 855
42710 855
42711 855
42712 855
42713 855
42714 855
42715 855
42716 855
42717 855
42718 855
42719 855
42720 855
42721 855
42722 855
42723 855
42724 855
42725 855
42726 855
42727 855
42728 855
42729 855
42730 855
42731 855
42732 855
42733 855
42734 855
42735 855
42736 855
42737 855
42738 855
42739 855
42740 855
42741 855
42742 855
42743 855
42744 855
42745 855
42746 855
42747 855
42748 855
42749 855
42750 855
42751 856
42752 856
42753 856
42754 856
42755 856
42756 856
42757 856
42758 856
42759 856
42760 856
42761 856
42762 856
42763 856
42764 856
42765 856
42766 856
42767 856
42768 856
42769 856
42770 856
42771 856
42772 856
42773 856
42774 856
42775 856
42776 856
42777 856
42778 856
42779 856
42780 856
42781 856
42782 856
42783 856
42784 856
42785 856
42786 856
42787 856
42788 856
42789 856
42790 856
42791 856
42792 856
42793 856
42794 856
42795 856
42796 856
42797 856
42798 856
42799 856
42800 856
42801 857
42802 857
42803 857
42804 857
42805 857
42806 857
42807 857
42808 857
42809 857
42810 857
42811 857
42812 857
42813 857
42814 857
42815 857
42816 857
42817 857
42818 857
42819 857
42820 857
42821 857
42822 857
42823 857
42824 857
42825 857
42826 857
42827 857
42828 857
42829 857
42830 857
42831 857
42832 857
42833 857
42834 857
42835 857
42836 857
42837 857
42838 857
42839 857
42840 857
42841 857
42842 857
42843 857
42844 857
42845 857
42846 857
42847 857
42848 857
42849 857
42850 857
42851 858
42852 858
42853 858
42854 858
42855 858
42856 858
42857 858
42858 858
42859 858
42860 858
42861 858
42862 858
42863 858
42864 858
42865 858
42866 858
42867 858
42868 858
42869 858
42870 858
42871 858
42872 858
42873 858
42874 858
42875 858
42876 858
42877 858
42878 858
42879 858
42880 858
42881 858
42882 858
42883 858
42884 858
42885 858
42886 858
42887 858
42888 858
42889 858
42890 858
42891 858
42892 858
42893 858
42894 858
42895 858
42896 858
42897 858
42898 858
42899 858
42900 858
42901 859
42902 859
42903 859
42904 859
42905 859
42906 859
42907 859
42908 859
42909 859
42910 859
42911 859
42912 859
42913 859
42914 859
42915 859
42916 859
42917 859
42918 859
42919 859
42920 859
42921 859
42922 859
42923 859
42924 859
42925 859
42926 859
42927 859
42928 859
42929 859
42930 859
42931 859
42932 859
42933 859
42934 859
42935 859
42936 859
42937 859
42938 859
42939 859
42940 859
42941 859
42942 859
42943 859
42944 859
42945 859
42946 859
42947 859
42948 859
42949 859
42950 859
42951 860
42952 860
42953 860
42954 860
42955 860
42956 860
42957 860
42958 860
42959 860
42960 860
42961 860
42962 860
42963 860
42964 860
42965 860
42966 860
42967 860
42968 860
42969 860
42970 860
42971 860
42972 860
42973 860
42974 860
42975 860
42976 860
42977 860
42978 860
42979 860
42980 860
42981 860
42982 860
42983 860
42984 860
42985 860
42986 860
42987 860
42988 860
42989 860
42990 860
42991 860
42992 860
42993 860
42994 860
42995 860
42996 860
42997 860
42998 860
42999 860
43000 860
43001 861
43002 861
43003 861
43004 861
43005 861
43006 861
43007 861
43008 861
43009 861
43010 861
43011 861
43012 861
43013 861
43014 861
43015 861
43016 861
43017 861
43018 861
43019 861
43020 861
43021 861
43022 861
43023 861
43024 861
43025 861
43026 861
43027 861
43028 861
43029 861
43030 861
43031 861
43032 861
43033 861
43034 861
43035 861
43036 861
43037 861
43038 861
43039 861
43040 861
43041 861
43042 861
43043 861
43044 861
43045 861
43046 861
43047 861
43048 861
43049 861
43050 861
43051 862
43052 862
43053 862
43054 862
43055 862
43056 862
43057 862
43058 862
43059 862
43060 862
43061 862
43062 862
43063 862
43064 862
43065 862
43066 862
43067 862
43068 862
43069 862
43070 862
43071 862
43072 862
43073 862
43074 862
43075 862
43076 862
43077 862
43078 862
43079 862
43080 862
43081 862
43082 862
43083 862
43084 862
43085 862
43086 862
43087 862
43088 862
43089 862
43090 862
43091 862
43092 862
43093 862
43094 862
43095 862
43096 862
43097 862
43098 862
43099 862
43100 862
43101 863
43102 863
43103 863
43104 863
43105 863
43106 863
43107 863
43108 863
43109 863
43110 863
43111 863
43112 863
43113 863
43114 863
43115 863
43116 863
43117 863
43118 863
43119 863
43120 863
43121 863
43122 863
43123 863
43124 863
43125 863
43126 863
43127 863
43128 863
43129 863
43130 863
43131 863
43132 863
43133 863
43134 863
43135 863
43136 863
43137 863
43138 863
43139 863
43140 863
43141 863
43142 863
43143 863
43144 863
43145 863
43146 863
43147 863
43148 863
43149 863
43150 863
43151 864
43152 864
43153 864
43154 864
43155 864
43156 864
43157 864
43158 864
43159 864
43160 864
43161 864
43162 864
43163 864
43164 864
43165 864
43166 864
43167 864
43168 864
43169 864
43170 864
43171 864
43172 864
43173 864
43174 864
43175 864
43176 864
43177 864
43178 864
43179 864
43180 864
43181 864
43182 864
43183 864
43184 864
43185 864
43186 864
43187 864
43188 864
43189 864
43190 864
43191 864
43192 864
43193 864
43194 864
43195 864
43196 864
43197 864
43198 864
43199 864
43200 864
43201 865
43202 865
43203 865
43204 865
43205 865
43206 865
43207 865
43208 865
43209 865
43210 865
43211 865
43212 865
43213 865
43214 865
43215 865
43216 865
43217 865
43218 865
43219 865
43220 865
43221 865
43222 865
43223 865
43224 865
43225 865
43226 865
43227 865
43228 865
43229 865
43230 865
43231 865
43232 865
43233 865
43234 865
43235 865
43236 865
43237 865
43238 865
43239 865
43240 865
43241 865
43242 865
43243 865
43244 865
43245 865
43246 865
43247 865
43248 865
43249 865
43250 865
43251 866
43252 866
43253 866
43254 866
43255 866
43256 866
43257 866
43258 866
43259 866
43260 866
43261 866
43262 866
43263 866
43264 866
43265 866
43266 866
43267 866
43268 866
43269 866
43270 866
43271 866
43272 866
43273 866
43274 866
43275 866
43276 866
43277 866
43278 866
43279 866
43280 866
43281 866
43282 866
43283 866
43284 866
43285 866
43286 866
43287 866
43288 866
43289 866
43290 866
43291 866
43292 866
43293 866
43294 866
43295 866
43296 866
43297 866
43298 866
43299 866
43300 866
43301 867
43302 867
43303 867
43304 867
43305 867
43306 867
43307 867
43308 867
43309 867
43310 867
43311 867
43312 867
43313 867
43314 867
43315 867
43316 867
43317 867
43318 867
43319 867
43320 867
43321 867
43322 867
43323 867
43324 867
43325 867
43326 867
43327 867
43328 867
43329 867
43330 867
43331 867
43332 867
43333 867
43334 867
43335 867
43336 867
43337 867
43338 867
43339 867
43340 867
43341 867
43342 867
43343 867
43344 867
43345 867
43346 867
43347 867
43348 867
43349 867
43350 867
43351 868
43352 868
43353 868
43354 868
43355 868
43356 868
43357 868
43358 868
43359 868
43360 868
43361 868
43362 868
43363 868
43364 868
43365 868
43366 868
43367 868
43368 868
43369 868
43370 868
43371 868
43372 868
43373 868
43374 868
43375 868
43376 868
43377 868
43378 868
43379 868
43380 868
43381 868
43382 868
43383 868
43384 868
43385 868
43386 868
43387 868
43388 868
43389 868
43390 868
43391 868
43392 868
43393 868
43394 868
43395 868
43396 868
43397 868
43398 868
43399 868
43400 868
43401 869
43402 869
43403 869
43404 869
43405 869
43406 869
43407 869
43408 869
43409 869
43410 869
43411 869
43412 869
43413 869
43414 869
43415 869
43416 869
43417 869
43418 869
43419 869
43420 869
43421 869
43422 869
43423 869
43424 869
43425 869
43426 869
43427 869
43428 869
43429 869
43430 869
43431 869
43432 869
43433 869
43434 869
43435 869
43436 869
43437 869
43438 869
43439 869
43440 869
43441 869
43442 869
43443 869
43444 869
43445 869
43446 869
43447 869
43448 869
43449 869
43450 869
43451 870
43452 870
43453 870
43454 870
43455 870
43456 870
43457 870
43458 870
43459 870
43460 870
43461 870
43462 870
43463 870
43464 870
43465 870
43466 870
43467 870
43468 870
43469 870
43470 870
43471 870
43472 870
43473 870
43474 870
43475 870
43476 870
43477 870
43478 870
43479 870
43480 870
43481 870
43482 870
43483 870
43484 870
43485 870
43486 870
43487 870
43488 870
43489 870
43490 870
43491 870
43492 870
43493 870
43494 870
43495 870
43496 870
43497 870
43498 870
43499 870
43500 870
43501 871
43502 871
43503 871
43504 871
43505 871
43506 871
43507 871
43508 871
43509 871
43510 871
43511 871
43512 871
43513 871
43514 871
43515 871
43516 871
43517 871
43518 871
43519 871
43520 871
43521 871
43522 871
43523 871
43524 871
43525 871
43526 871
43527 871
43528 871
43529 871
43530 871
43531 871
43532 871
43533 871
43534 871
43535 871
43536 871
43537 871
43538 871
43539 871
43540 871
43541 871
43542 871
43543 871
43544 871
43545 871
43546 871
43547 871
43548 871
43549 871
43550 871
43551 872
43552 872
43553 872
43554 872
43555 872
43556 872
43557 872
43558 872
43559 872
43560 872
43561 872
43562 872
43563 872
43564 872
43565 872
43566 872
43567 872
43568 872
43569 872
43570 872
43571 872
43572 872
43573 872
43574 872
43575 872
43576 872
43577 872
43578 872
43579 872
43580 872
43581 872
43582 872
43583 872
43584 872
43585 872
43586 872
43587 872
43588 872
43589 872
43590 872
43591 872
43592 872
43593 872
43594 872
43595 872
43596 872
43597 872
43598 872
43599 872
43600 872
43601 873
43602 873
43603 873
43604 873
43605 873
43606 873
43607 873
43608 873
43609 873
43610 873
43611 873
43612 873
43613 873
43614 873
43615 873
43616 873
43617 873
43618 873
43619 873
43620 873
43621 873
43622 873
43623 873
43624 873
43625 873
43626 873
43627 873
43628 873
43629 873
43630 873
43631 873
43632 873
43633 873
43634 873
43635 873
43636 873
43637 873
43638 873
43639 873
43640 873
43641 873
43642 873
43643 873
43644 873
43645 873
43646 873
43647 873
43648 873
43649 873
43650 873
43651 874
43652 874
43653 874
43654 874
43655 874
43656 874
43657 874
43658 874
43659 874
43660 874
43661 874
43662 874
43663 874
43664 874
43665 874
43666 874
43667 874
43668 874
43669 874
43670 874
43671 874
43672 874
43673 874
43674 874
43675 874
43676 874
43677 874
43678 874
43679 874
43680 874
43681 874
43682 874
43683 874
43684 874
43685 874
43686 874
43687 874
43688 874
43689 874
43690 874
43691 874
43692 874
43693 874
43694 874
43695 874
43696 874
43697 874
43698 874
43699 874
43700 874
43701 875
43702 875
43703 875
43704 875
43705 875
43706 875
43707 875
43708 875
43709 875
43710 875
43711 875
43712 875
43713 875
43714 875
43715 875
43716 875
43717 875
43718 875
43719 875
43720 875
43721 875
43722 875
43723 875
43724 875
43725 875
43726 875
43727 875
43728 875
43729 875
43730 875
43731 875
43732 875
43733 875
43734 875
43735 875
43736 875
43737 875
43738 875
43739 875
43740 875
43741 875
43742 875
43743 875
43744 875
43745 875
43746 875
43747 875
43748 875
43749 875
43750 875
43751 876
43752 876
43753 876
43754 876
43755 876
43756 876
43757 876
43758 876
43759 876
43760 876
43761 876
43762 876
43763 876
43764 876
43765 876
43766 876
43767 876
43768 876
43769 876
43770 876
43771 876
43772 876
43773 876
43774 876
43775 876
43776 876
43777 876
43778 876
43779 876
43780 876
43781 876
43782 876
43783 876
43784 876
43785 876
43786 876
43787 876
43788 876
43789 876
43790 876
43791 876
43792 876
43793 876
43794 876
43795 876
43796 876
43797 876
43798 876
43799 876
43800 876
43801 877
43802 877
43803 877
43804 877
43805 877
43806 877
43807 877
43808 877
43809 877
43810 877
43811 877
43812 877
43813 877
43814 877
43815 877
43816 877
43817 877
43818 877
43819 877
43820 877
43821 877
43822 877
43823 877
43824 877
43825 877
43826 877
43827 877
43828 877
43829 877
43830 877
43831 877
43832 877
43833 877
43834 877
43835 877
43836 877
43837 877
43838 877
43839 877
43840 877
43841 877
43842 877
43843 877
43844 877
43845 877
43846 877
43847 877
43848 877
43849 877
43850 877
43851 878
43852 878
43853 878
43854 878
43855 878
43856 878
43857 878
43858 878
43859 878
43860 878
43861 878
43862 878
43863 878
43864 878
43865 878
43866 878
43867 878
43868 878
43869 878
43870 878
43871 878
43872 878
43873 878
43874 878
43875 878
43876 878
43877 878
43878 878
43879 878
43880 878
43881 878
43882 878
43883 878
43884 878
43885 878
43886 878
43887 878
43888 878
43889 878
43890 878
43891 878
43892 878
43893 878
43894 878
43895 878
43896 878
43897 878
43898 878
43899 878
43900 878
43901 879
43902 879
43903 879
43904 879
43905 879
43906 879
43907 879
43908 879
43909 879
43910 879
43911 879
43912 879
43913 879
43914 879
43915 879
43916 879
43917 879
43918 879
43919 879
43920 879
43921 879
43922 879
43923 879
43924 879
43925 879
43926 879
43927 879
43928 879
43929 879
43930 879
43931 879
43932 879
43933 879
43934 879
43935 879
43936 879
43937 879
43938 879
43939 879
43940 879
43941 879
43942 879
43943 879
43944 879
43945 879
43946 879
43947 879
43948 879
43949 879
43950 879
43951 880
43952 880
43953 880
43954 880
43955 880
43956 880
43957 880
43958 880
43959 880
43960 880
43961 880
43962 880
43963 880
43964 880
43965 880
43966 880
43967 880
43968 880
43969 880
43970 880
43971 880
43972 880
43973 880
43974 880
43975 880
43976 880
43977 880
43978 880
43979 880
43980 880
43981 880
43982 880
43983 880
43984 880
43985 880
43986 880
43987 880
43988 880
43989 880
43990 880
43991 880
43992 880
43993 880
43994 880
43995 880
43996 880
43997 880
43998 880
43999 880
44000 880
44001 881
44002 881
44003 881
44004 881
44005 881
44006 881
44007 881
44008 881
44009 881
44010 881
44011 881
44012 881
44013 881
44014 881
44015 881
44016 881
44017 881
44018 881
44019 881
44020 881
44021 881
44022 881
44023 881
44024 881
44025 881
44026 881
44027 881
44028 881
44029 881
44030 881
44031 881
44032 881
44033 881
44034 881
44035 881
44036 881
44037 881
44038 881
44039 881
44040 881
44041 881
44042 881
44043 881
44044 881
44045 881
44046 881
44047 881
44048 881
44049 881
44050 881
44051 882
44052 882
44053 882
44054 882
44055 882
44056 882
44057 882
44058 882
44059 882
44060 882
44061 882
44062 882
44063 882
44064 882
44065 882
44066 882
44067 882
44068 882
44069 882
44070 882
44071 882
44072 882
44073 882
44074 882
44075 882
44076 882
44077 882
44078 882
44079 882
44080 882
44081 882
44082 882
44083 882
44084 882
44085 882
44086 882
44087 882
44088 882
44089 882
44090 882
44091 882
44092 882
44093 882
44094 882
44095 882
44096 882
44097 882
44098 882
44099 882
44100 882
44101 883
44102 883
44103 883
44104 883
44105 883
44106 883
44107 883
44108 883
44109 883
44110 883
44111 883
44112 883
44113 883
44114 883
44115 883
44116 883
44117 883
44118 883
44119 883
44120 883
44121 883
44122 883
44123 883
44124 883
44125 883
44126 883
44127 883
44128 883
44129 883
44130 883
44131 883
44132 883
44133 883
44134 883
44135 883
44136 883
44137 883
44138 883
44139 883
44140 883
44141 883
44142 883
44143 883
44144 883
44145 883
44146 883
44147 883
44148 883
44149 883
44150 883
44151 884
44152 884
44153 884
44154 884
44155 884
44156 884
44157 884
44158 884
44159 884
44160 884
44161 884
44162 884
44163 884
44164 884
44165 884
44166 884
44167 884
44168 884
44169 884
44170 884
44171 884
44172 884
44173 884
44174 884
44175 884
44176 884
44177 884
44178 884
44179 884
44180 884
44181 884
44182 884
44183 884
44184 884
44185 884
44186 884
44187 884
44188 884
44189 884
44190 884
44191 884
44192 884
44193 884
44194 884
44195 884
44196 884
44197 884
44198 884
44199 884
44200 884
44201 885
44202 885
44203 885
44204 885
44205 885
44206 885
44207 885
44208 885
44209 885
44210 885
44211 885
44212 885
44213 885
44214 885
44215 885
44216 885
44217 885
44218 885
44219 885
44220 885
44221 885
44222 885
44223 885
44224 885
44225 885
44226 885
44227 885
44228 885
44229 885
44230 885
44231 885
44232 885
44233 885
44234 885
44235 885
44236 885
44237 885
44238 885
44239 885
44240 885
44241 885
44242 885
44243 885
44244 885
44245 885
44246 885
44247 885
44248 885
44249 885
44250 885
44251 886
44252 886
44253 886
44254 886
44255 886
44256 886
44257 886
44258 886
44259 886
44260 886
44261 886
44262 886
44263 886
44264 886
44265 886
44266 886
44267 886
44268 886
44269 886
44270 886
44271 886
44272 886
44273 886
44274 886
44275 886
44276 886
44277 886
44278 886
44279 886
44280 886
44281 886
44282 886
44283 886
44284 886
44285 886
44286 886
44287 886
44288 886
44289 886
44290 886
44291 886
44292 886
44293 886
44294 886
44295 886
44296 886
44297 886
44298 886
44299 886
44300 886
44301 887
44302 887
44303 887
44304 887
44305 887
44306 887
44307 887
44308 887
44309 887
44310 887
44311 887
44312 887
44313 887
44314 887
44315 887
44316 887
44317 887
44318 887
44319 887
44320 887
44321 887
44322 887
44323 887
44324 887
44325 887
44326 887
44327 887
44328 887
44329 887
44330 887
44331 887
44332 887
44333 887
44334 887
44335 887
44336 887
44337 887
44338 887
44339 887
44340 887
44341 887
44342 887
44343 887
44344 887
44345 887
44346 887
44347 887
44348 887
44349 887
44350 887
44351 888
44352 888
44353 888
44354 888
44355 888
44356 888
44357 888
44358 888
44359 888
44360 888
44361 888
44362 888
44363 888
44364 888
44365 888
44366 888
44367 888
44368 888
44369 888
44370 888
44371 888
44372 888
44373 888
44374 888
44375 888
44376 888
44377 888
44378 888
44379 888
44380 888
44381 888
44382 888
44383 888
44384 888
44385 888
44386 888
44387 888
44388 888
44389 888
44390 888
44391 888
44392 888
44393 888
44394 888
44395 888
44396 888
44397 888
44398 888
44399 888
44400 888
44401 889
44402 889
44403 889
44404 889
44405 889
44406 889
44407 889
44408 889
44409 889
44410 889
44411 889
44412 889
44413 889
44414 889
44415 889
44416 889
44417 889
44418 889
44419 889
44420 889
44421 889
44422 889
44423 889
44424 889
44425 889
44426 889
44427 889
44428 889
44429 889
44430 889
44431 889
44432 889
44433 889
44434 889
44435 889
44436 889
44437 889
44438 889
44439 889
44440 889
44441 889
44442 889
44443 889
44444 889
44445 889
44446 889
44447 889
44448 889
44449 889
44450 889
44451 890
44452 890
44453 890
44454 890
44455 890
44456 890
44457 890
44458 890
44459 890
44460 890
44461 890
44462 890
44463 890
44464 890
44465 890
44466 890
44467 890
44468 890
44469 890
44470 890
44471 890
44472 890
44473 890
44474 890
44475 890
44476 890
44477 890
44478 890
44479 890
44480 890
44481 890
44482 890
44483 890
44484 890
44485 890
44486 890
44487 890
44488 890
44489 890
44490 890
44491 890
44492 890
44493 890
44494 890
44495 890
44496 890
44497 890
44498 890
44499 890
44500 890
44501 891
44502 891
44503 891
44504 891
44505 891
44506 891
44507 891
44508 891
44509 891
44510 891
44511 891
44512 891
44513 891
44514 891
44515 891
44516 891
44517 891
44518 891
44519 891
44520 891
44521 891
44522 891
44523 891
44524 891
44525 891
44526 891
44527 891
44528 891
44529 891
44530 891
44531 891
44532 891
44533 891
44534 891
44535 891
44536 891
44537 891
44538 891
44539 891
44540 891
44541 891
44542 891
44543 891
44544 891
44545 891
44546 891
44547 891
44548 891
44549 891
44550 891
44551 892
44552 892
44553 892
44554 892
44555 892
44556 892
44557 892
44558 892
44559 892
44560 892
44561 892
44562 892
44563 892
44564 892
44565 892
44566 892
44567 892
44568 892
44569 892
44570 892
44571 892
44572 892
44573 892
44574 892
44575 892
44576 892
44577 892
44578 892
44579 892
44580 892
44581 892
44582 892
44583 892
44584 892
44585 892
44586 892
44587 892
44588 892
44589 892
44590 892
44591 892
44592 892
44593 892
44594 892
44595 892
44596 892
44597 892
44598 892
44599 892
44600 892
44601 893
44602 893
44603 893
44604 893
44605 893
44606 893
44607 893
44608 893
44609 893
44610 893
44611 893
44612 893
44613 893
44614 893
44615 893
44616 893
44617 893
44618 893
44619 893
44620 893
44621 893
44622 893
44623 893
44624 893
44625 893
44626 893
44627 893
44628 893
44629 893
44630 893
44631 893
44632 893
44633 893
44634 893
44635 893
44636 893
44637 893
44638 893
44639 893
44640 893
44641 893
44642 893
44643 893
44644 893
44645 893
44646 893
44647 893
44648 893
44649 893
44650 893
44651 894
44652 894
44653 894
44654 894
44655 894
44656 894
44657 894
44658 894
44659 894
44660 894
44661 894
44662 894
44663 894
44664 894
44665 894
44666 894
44667 894
44668 894
44669 894
44670 894
44671 894
44672 894
44673 894
44674 894
44675 894
44676 894
44677 894
44678 894
44679 894
44680 894
44681 894
44682 894
44683 894
44684 894
44685 894
44686 894
44687 894
44688 894
44689 894
44690 894
44691 894
44692 894
44693 894
44694 894
44695 894
44696 894
44697 894
44698 894
44699 894
44700 894
44701 895
44702 895
44703 895
44704 895
44705 895
44706 895
44707 895
44708 895
44709 895
44710 895
44711 895
44712 895
44713 895
44714 895
44715 895
44716 895
44717 895
44718 895
44719 895
44720 895
44721 895
44722 895
44723 895
44724 895
44725 895
44726 895
44727 895
44728 895
44729 895
44730 895
44731 895
44732 895
44733 895
44734 895
44735 895
44736 895
44737 895
44738 895
44739 895
44740 895
44741 895
44742 895
44743 895
44744 895
44745 895
44746 895
44747 895
44748 895
44749 895
44750 895
44751 896
44752 896
44753 896
44754 896
44755 896
44756 896
44757 896
44758 896
44759 896
44760 896
44761 896
44762 896
44763 896
44764 896
44765 896
44766 896
44767 896
44768 896
44769 896
44770 896
44771 896
44772 896
44773 896
44774 896
44775 896
44776 896
44777 896
44778 896
44779 896
44780 896
44781 896
44782 896
44783 896
44784 896
44785 896
44786 896
44787 896
44788 896
44789 896
44790 896
44791 896
44792 896
44793 896
44794 896
44795 896
44796 896
44797 896
44798 896
44799 896
44800 896
44801 897
44802 897
44803 897
44804 897
44805 897
44806 897
44807 897
44808 897
44809 897
44810 897
44811 897
44812 897
44813 897
44814 897
44815 897
44816 897
44817 897
44818 897
44819 897
44820 897
44821 897
44822 897
44823 897
44824 897
44825 897
44826 897
44827 897
44828 897
44829 897
44830 897
44831 897
44832 897
44833 897
44834 897
44835 897
44836 897
44837 897
44838 897
44839 897
44840 897
44841 897
44842 897
44843 897
44844 897
44845 897
44846 897
44847 897
44848 897
44849 897
44850 897
44851 898
44852 898
44853 898
44854 898
44855 898
44856 898
44857 898
44858 898
44859 898
44860 898
44861 898
44862 898
44863 898
44864 898
44865 898
44866 898
44867 898
44868 898
44869 898
44870 898
44871 898
44872 898
44873 898
44874 898
44875 898
44876 898
44877 898
44878 898
44879 898
44880 898
44881 898
44882 898
44883 898
44884 898
44885 898
44886 898
44887 898
44888 898
44889 898
44890 898
44891 898
44892 898
44893 898
44894 898
44895 898
44896 898
44897 898
44898 898
44899 898
44900 898
44901 899
44902 899
44903 899
44904 899
44905 899
44906 899
44907 899
44908 899
44909 899
44910 899
44911 899
44912 899
44913 899
44914 899
44915 899
44916 899
44917 899
44918 899
44919 899
44920 899
44921 899
44922 899
44923 899
44924 899
44925 899
44926 899
44927 899
44928 899
44929 899
44930 899
44931 899
44932 899
44933 899
44934 899
44935 899
44936 899
44937 899
44938 899
44939 899
44940 899
44941 899
44942 899
44943 899
44944 899
44945 899
44946 899
44947 899
44948 899
44949 899
44950 899
44951 900
44952 900
44953 900
44954 900
44955 900
44956 900
44957 900
44958 900
44959 900
44960 900
44961 900
44962 900
44963 900
44964 900
44965 900
44966 900
44967 900
44968 900
44969 900
44970 900
44971 900
44972 900
44973 900
44974 900
44975 900
44976 900
44977 900
44978 900
44979 900
44980 900
44981 900
44982 900
44983 900
44984 900
44985 900
44986 900
44987 900
44988 900
44989 900
44990 900
44991 900
44992 900
44993 900
44994 900
44995 900
44996 900
44997 900
44998 900
44999 900
45000 900
