=========================================
  NextTissUe Simulation Runner
=========================================
Output directory: /mnt/d/NextTissUe_data

Setting up output links...
Starting LAMMPS simulation...
Running with 4 MPI processes
Output will be written directly to: /mnt/d/NextTissUe_data

Press Ctrl+C to stop the simulation
To run in background: ./run_simulation.sh &

LAMMPS (10 Dec 2025)
OMP_NUM_THREADS environment is not set. Defaulting to 1 thread.
  using 1 OpenMP thread(s) per MPI task
Lattice spacing in x,y,z = 1 1 1
Created orthogonal box = (0 0 -1) to (1 1 1)
  2 by 2 by 1 MPI processor grid
Changing box ...
  orthogonal box = (-50 0 -1) to (50 1 1)
  orthogonal box = (-50 -50 -1) to (50 50 1)
Created 1000 atoms
  using lattice units in orthogonal box = (-50 -50 -1) to (50 50 1)
  create_atoms CPU = 0.001 seconds
Displacing atoms ...
Setting atom values ...
  1000 settings made for z
Generated 0 of 1 mixed pair_coeff terms from geometric mixing rule
Neighbor list info ...
  update: every = 1 steps, delay = 0 steps, check = yes
  max neighbors/atom: 2000, page size: 100000
  master list distance cutoff = 1.8
  ghost atom cutoff = 4
  binsize = 0.9, bins = 112 112 3
  1 neighbor lists, perpetual/occasional/extra = 1 0 0
  (1) pair lj/cut, perpetual
      attributes: half, newton on
      pair build: half/bin/newton
      stencil: half/bin/2d
      bin: standard
Setting up cg style minimization ...
  Unit style    : lj
  Current step  : 0
Per MPI rank memory allocation (min/avg/max) = 8.762 | 8.762 | 8.762 Mbytes
   Step          Temp          E_pair         E_mol          TotEng         Press     
         0   0              9.3091272e+12  0              9.3091272e+12  5.5854764e+12
        41   0              5.3208252e-07  0              5.3208252e-07  2.7409725e-05
Loop time of 0.00146465 on 4 procs for 41 steps with 1000 atoms

94.4% CPU use with 4 MPI tasks x 1 OpenMP threads

Minimization stats:
  Stopping criterion = quadratic factors are zero
  Energy initial, next-to-last, final = 
       9309127152541.1 5.32082521547683e-07 5.32082521547683e-07
  Force two-norm initial, final = 1.9842855e+18 0.28098159
  Force max component initial, final = 1.3500344e+18 0.16199243
  Final line search alpha, max atom move = 0.3157728 0.051152804
  Iterations, force evaluations = 41 101

MPI task timing breakdown:
Section |  min time  |  avg time  |  max time  |%varavg| %total
---------------------------------------------------------------
Pair    | 8.8779e-05 | 9.613e-05  | 0.00010645 |   0.0 |  6.56
Bond    | 2.156e-06  | 2.2245e-06 | 2.275e-06  |   0.0 |  0.15
Neigh   | 7.6121e-05 | 8.1871e-05 | 8.5819e-05 |   0.0 |  5.59
Comm    | 0.0004897  | 0.00052079 | 0.0005488  |   0.0 | 35.56
Output  | 0          | 0          | 0          |   0.0 |  0.00
Modify  | 2.9741e-05 | 3.1284e-05 | 3.2355e-05 |   0.0 |  2.14
Other   |            | 0.0007323  |            |       | 50.00

Nlocal:            250 ave         257 max         236 min
Histogram: 1 0 0 0 0 0 0 0 2 1
Nghost:          94.75 ave         102 max          85 min
Histogram: 1 0 1 0 0 0 0 0 0 2
Neighs:          131.5 ave         141 max         119 min
Histogram: 1 0 0 0 0 1 0 1 0 1

Total # of neighbors = 526
Ave neighs/atom = 0.526
Ave special neighs/atom = 0
Neighbor list builds = 10
Dangerous builds = 0
Read molecule template CellLarge:
#template for a cell with 50 atoms
  1 molecules
  0 fragments
  0 bodies
  50 atoms with max type 1
  50 bonds with max type 1
  0 angles with max type 0
  0 dihedrals with max type 0
  0 impropers with max type 0
Read molecule template CellSmall:
#template for a cell with 36 atoms
  1 molecules
  0 fragments
  0 bodies
  36 atoms with max type 1
  36 bonds with max type 1
  0 angles with max type 0
  0 dihedrals with max type 0
  0 impropers with max type 0
1000 atoms in group todelete
Created 50 atoms
  using lattice units in orthogonal box = (-50 -50 -1) to (50 50 1)
  create_atoms CPU = 0.000 seconds
Created 50 atoms
  using lattice units in orthogonal box = (-50 -50 -1) to (50 50 1)
  create_atoms CPU = 0.000 seconds
Created 50 atoms
  using lattice units in orthogonal box = (-50 -50 -1) to (50 50 1)
  create_atoms CPU = 0.000 seconds
Created 50 atoms
  using lattice units in orthogonal box = (-50 -50 -1) to (50 50 1)
  create_atoms CPU = 0.000 seconds
Created 50 atoms
  using lattice units in orthogonal box = (-50 -50 -1) to (50 50 1)
  create_atoms CPU = 0.000 seconds
Created 50 atoms
  using lattice units in orthogonal box = (-50 -50 -1) to (50 50 1)
  create_atoms CPU = 0.000 seconds
Created 50 atoms
  using lattice units in orthogonal box = (-50 -50 -1) to (50 50 1)
  create_atoms CPU = 0.000 seconds
Created 50 atoms
  using lattice units in orthogonal box = (-50 -50 -1) to (50 50 1)
  create_atoms CPU = 0.000 seconds
Created 50 atoms
  using lattice units in orthogonal box = (-50 -50 -1) to (50 50 1)
  create_atoms CPU = 0.000 seconds
Created 50 atoms
  using lattice units in orthogonal box = (-50 -50 -1) to (50 50 1)
  create_atoms CPU = 0.000 seconds
Created 50 atoms
  using lattice units in orthogonal box = (-50 -50 -1) to (50 50 1)
  create_atoms CPU = 0.000 seconds
Created 50 atoms
  using lattice units in orthogonal box = (-50 -50 -1) to (50 50 1)
  create_atoms CPU = 0.000 seconds
Created 50 atoms
  using lattice units in orthogonal box = (-50 -50 -1) to (50 50 1)
  create_atoms CPU = 0.000 seconds
Created 50 atoms
  using lattice units in orthogonal box = (-50 -50 -1) to (50 50 1)
  create_atoms CPU = 0.000 seconds
Created 50 atoms
  using lattice units in orthogonal box = (-50 -50 -1) to (50 50 1)
  create_atoms CPU = 0.000 seconds
Created 50 atoms
  using lattice units in orthogonal box = (-50 -50 -1) to (50 50 1)
  create_atoms CPU = 0.000 seconds
Created 50 atoms
  using lattice units in orthogonal box = (-50 -50 -1) to (50 50 1)
  create_atoms CPU = 0.000 seconds
Created 50 atoms
  using lattice units in orthogonal box = (-50 -50 -1) to (50 50 1)
  create_atoms CPU = 0.000 seconds
Created 50 atoms
  using lattice units in orthogonal box = (-50 -50 -1) to (50 50 1)
  create_atoms CPU = 0.000 seconds
Created 50 atoms
  using lattice units in orthogonal box = (-50 -50 -1) to (50 50 1)
  create_atoms CPU = 0.000 seconds
Created 50 atoms
  using lattice units in orthogonal box = (-50 -50 -1) to (50 50 1)
  create_atoms CPU = 0.000 seconds
Created 50 atoms
  using lattice units in orthogonal box = (-50 -50 -1) to (50 50 1)
  create_atoms CPU = 0.000 seconds
Created 50 atoms
  using lattice units in orthogonal box = (-50 -50 -1) to (50 50 1)
  create_atoms CPU = 0.000 seconds
Created 50 atoms
  using lattice units in orthogonal box = (-50 -50 -1) to (50 50 1)
  create_atoms CPU = 0.000 seconds
Created 50 atoms
  using lattice units in orthogonal box = (-50 -50 -1) to (50 50 1)
  create_atoms CPU = 0.000 seconds
Created 50 atoms
  using lattice units in orthogonal box = (-50 -50 -1) to (50 50 1)
  create_atoms CPU = 0.000 seconds
Created 50 atoms
  using lattice units in orthogonal box = (-50 -50 -1) to (50 50 1)
  create_atoms CPU = 0.000 seconds
Created 50 atoms
  using lattice units in orthogonal box = (-50 -50 -1) to (50 50 1)
  create_atoms CPU = 0.000 seconds
Created 50 atoms
  using lattice units in orthogonal box = (-50 -50 -1) to (50 50 1)
  create_atoms CPU = 0.000 seconds
Created 50 atoms
  using lattice units in orthogonal box = (-50 -50 -1) to (50 50 1)
  create_atoms CPU = 0.000 seconds
Created 50 atoms
  using lattice units in orthogonal box = (-50 -50 -1) to (50 50 1)
  create_atoms CPU = 0.000 seconds
Created 50 atoms
  using lattice units in orthogonal box = (-50 -50 -1) to (50 50 1)
  create_atoms CPU = 0.000 seconds
Created 50 atoms
  using lattice units in orthogonal box = (-50 -50 -1) to (50 50 1)
  create_atoms CPU = 0.000 seconds
Created 50 atoms
  using lattice units in orthogonal box = (-50 -50 -1) to (50 50 1)
  create_atoms CPU = 0.000 seconds
Created 50 atoms
  using lattice units in orthogonal box = (-50 -50 -1) to (50 50 1)
  create_atoms CPU = 0.000 seconds
Created 50 atoms
  using lattice units in orthogonal box = (-50 -50 -1) to (50 50 1)
  create_atoms CPU = 0.000 seconds
Created 50 atoms
  using lattice units in orthogonal box = (-50 -50 -1) to (50 50 1)
  create_atoms CPU = 0.000 seconds
Created 50 atoms
  using lattice units in orthogonal box = (-50 -50 -1) to (50 50 1)
  create_atoms CPU = 0.000 seconds
Created 50 atoms
  using lattice units in orthogonal box = (-50 -50 -1) to (50 50 1)
  create_atoms CPU = 0.000 seconds
Created 50 atoms
  using lattice units in orthogonal box = (-50 -50 -1) to (50 50 1)
  create_atoms CPU = 0.000 seconds
Created 50 atoms
  using lattice units in orthogonal box = (-50 -50 -1) to (50 50 1)
  create_atoms CPU = 0.000 seconds
Created 50 atoms
  using lattice units in orthogonal box = (-50 -50 -1) to (50 50 1)
  create_atoms CPU = 0.000 seconds
Created 50 atoms
  using lattice units in orthogonal box = (-50 -50 -1) to (50 50 1)
  create_atoms CPU = 0.000 seconds
Created 50 atoms
  using lattice units in orthogonal box = (-50 -50 -1) to (50 50 1)
  create_atoms CPU = 0.000 seconds
Created 50 atoms
  using lattice units in orthogonal box = (-50 -50 -1) to (50 50 1)
  create_atoms CPU = 0.000 seconds
Created 50 atoms
  using lattice units in orthogonal box = (-50 -50 -1) to (50 50 1)
  create_atoms CPU = 0.000 seconds
Created 50 atoms
  using lattice units in orthogonal box = (-50 -50 -1) to (50 50 1)
  create_atoms CPU = 0.000 seconds
Created 50 atoms
  using lattice units in orthogonal box = (-50 -50 -1) to (50 50 1)
  create_atoms CPU = 0.000 seconds
Created 50 atoms
  using lattice units in orthogonal box = (-50 -50 -1) to (50 50 1)
  create_atoms CPU = 0.000 seconds
Created 50 atoms
  using lattice units in orthogonal box = (-50 -50 -1) to (50 50 1)
  create_atoms CPU = 0.000 seconds
Created 50 atoms
  using lattice units in orthogonal box = (-50 -50 -1) to (50 50 1)
  create_atoms CPU = 0.000 seconds
Created 50 atoms
  using lattice units in orthogonal box = (-50 -50 -1) to (50 50 1)
  create_atoms CPU = 0.000 seconds
Created 50 atoms
  using lattice units in orthogonal box = (-50 -50 -1) to (50 50 1)
  create_atoms CPU = 0.000 seconds
Created 50 atoms
  using lattice units in orthogonal box = (-50 -50 -1) to (50 50 1)
  create_atoms CPU = 0.000 seconds
Created 50 atoms
  using lattice units in orthogonal box = (-50 -50 -1) to (50 50 1)
  create_atoms CPU = 0.000 seconds
Created 50 atoms
  using lattice units in orthogonal box = (-50 -50 -1) to (50 50 1)
  create_atoms CPU = 0.000 seconds
Created 50 atoms
  using lattice units in orthogonal box = (-50 -50 -1) to (50 50 1)
  create_atoms CPU = 0.000 seconds
Created 50 atoms
  using lattice units in orthogonal box = (-50 -50 -1) to (50 50 1)
  create_atoms CPU = 0.000 seconds
Created 50 atoms
  using lattice units in orthogonal box = (-50 -50 -1) to (50 50 1)
  create_atoms CPU = 0.000 seconds
Created 50 atoms
  using lattice units in orthogonal box = (-50 -50 -1) to (50 50 1)
  create_atoms CPU = 0.000 seconds
Created 50 atoms
  using lattice units in orthogonal box = (-50 -50 -1) to (50 50 1)
  create_atoms CPU = 0.000 seconds
Created 50 atoms
  using lattice units in orthogonal box = (-50 -50 -1) to (50 50 1)
  create_atoms CPU = 0.000 seconds
Created 50 atoms
  using lattice units in orthogonal box = (-50 -50 -1) to (50 50 1)
  create_atoms CPU = 0.000 seconds
Created 50 atoms
  using lattice units in orthogonal box = (-50 -50 -1) to (50 50 1)
  create_atoms CPU = 0.000 seconds
Created 50 atoms
  using lattice units in orthogonal box = (-50 -50 -1) to (50 50 1)
  create_atoms CPU = 0.000 seconds
Created 50 atoms
  using lattice units in orthogonal box = (-50 -50 -1) to (50 50 1)
  create_atoms CPU = 0.000 seconds
Created 50 atoms
  using lattice units in orthogonal box = (-50 -50 -1) to (50 50 1)
  create_atoms CPU = 0.000 seconds
Created 50 atoms
  using lattice units in orthogonal box = (-50 -50 -1) to (50 50 1)
  create_atoms CPU = 0.000 seconds
Created 50 atoms
  using lattice units in orthogonal box = (-50 -50 -1) to (50 50 1)
  create_atoms CPU = 0.000 seconds
Created 50 atoms
  using lattice units in orthogonal box = (-50 -50 -1) to (50 50 1)
  create_atoms CPU = 0.000 seconds
Created 50 atoms
  using lattice units in orthogonal box = (-50 -50 -1) to (50 50 1)
  create_atoms CPU = 0.000 seconds
Created 50 atoms
  using lattice units in orthogonal box = (-50 -50 -1) to (50 50 1)
  create_atoms CPU = 0.000 seconds
Created 50 atoms
  using lattice units in orthogonal box = (-50 -50 -1) to (50 50 1)
  create_atoms CPU = 0.000 seconds
Created 50 atoms
  using lattice units in orthogonal box = (-50 -50 -1) to (50 50 1)
  create_atoms CPU = 0.000 seconds
Created 50 atoms
  using lattice units in orthogonal box = (-50 -50 -1) to (50 50 1)
  create_atoms CPU = 0.000 seconds
Created 50 atoms
  using lattice units in orthogonal box = (-50 -50 -1) to (50 50 1)
  create_atoms CPU = 0.000 seconds
Created 50 atoms
  using lattice units in orthogonal box = (-50 -50 -1) to (50 50 1)
  create_atoms CPU = 0.000 seconds
Created 50 atoms
  using lattice units in orthogonal box = (-50 -50 -1) to (50 50 1)
  create_atoms CPU = 0.000 seconds
Created 50 atoms
  using lattice units in orthogonal box = (-50 -50 -1) to (50 50 1)
  create_atoms CPU = 0.000 seconds
Created 50 atoms
  using lattice units in orthogonal box = (-50 -50 -1) to (50 50 1)
  create_atoms CPU = 0.000 seconds
Created 50 atoms
  using lattice units in orthogonal box = (-50 -50 -1) to (50 50 1)
  create_atoms CPU = 0.000 seconds
Created 50 atoms
  using lattice units in orthogonal box = (-50 -50 -1) to (50 50 1)
  create_atoms CPU = 0.000 seconds
Created 50 atoms
  using lattice units in orthogonal box = (-50 -50 -1) to (50 50 1)
  create_atoms CPU = 0.000 seconds
Created 50 atoms
  using lattice units in orthogonal box = (-50 -50 -1) to (50 50 1)
  create_atoms CPU = 0.000 seconds
Created 50 atoms
  using lattice units in orthogonal box = (-50 -50 -1) to (50 50 1)
  create_atoms CPU = 0.000 seconds
Created 50 atoms
  using lattice units in orthogonal box = (-50 -50 -1) to (50 50 1)
  create_atoms CPU = 0.000 seconds
Created 50 atoms
  using lattice units in orthogonal box = (-50 -50 -1) to (50 50 1)
  create_atoms CPU = 0.000 seconds
Created 50 atoms
  using lattice units in orthogonal box = (-50 -50 -1) to (50 50 1)
  create_atoms CPU = 0.000 seconds
Created 50 atoms
  using lattice units in orthogonal box = (-50 -50 -1) to (50 50 1)
  create_atoms CPU = 0.000 seconds
Created 50 atoms
  using lattice units in orthogonal box = (-50 -50 -1) to (50 50 1)
  create_atoms CPU = 0.000 seconds
Created 50 atoms
  using lattice units in orthogonal box = (-50 -50 -1) to (50 50 1)
  create_atoms CPU = 0.000 seconds
Created 50 atoms
  using lattice units in orthogonal box = (-50 -50 -1) to (50 50 1)
  create_atoms CPU = 0.000 seconds
Created 50 atoms
  using lattice units in orthogonal box = (-50 -50 -1) to (50 50 1)
  create_atoms CPU = 0.000 seconds
Created 50 atoms
  using lattice units in orthogonal box = (-50 -50 -1) to (50 50 1)
  create_atoms CPU = 0.000 seconds
Created 50 atoms
  using lattice units in orthogonal box = (-50 -50 -1) to (50 50 1)
  create_atoms CPU = 0.000 seconds
Created 50 atoms
  using lattice units in orthogonal box = (-50 -50 -1) to (50 50 1)
  create_atoms CPU = 0.000 seconds
Created 50 atoms
  using lattice units in orthogonal box = (-50 -50 -1) to (50 50 1)
  create_atoms CPU = 0.000 seconds
Created 50 atoms
  using lattice units in orthogonal box = (-50 -50 -1) to (50 50 1)
  create_atoms CPU = 0.000 seconds
Created 50 atoms
  using lattice units in orthogonal box = (-50 -50 -1) to (50 50 1)
  create_atoms CPU = 0.000 seconds
Created 50 atoms
  using lattice units in orthogonal box = (-50 -50 -1) to (50 50 1)
  create_atoms CPU = 0.000 seconds
Created 50 atoms
  using lattice units in orthogonal box = (-50 -50 -1) to (50 50 1)
  create_atoms CPU = 0.000 seconds
Created 50 atoms
  using lattice units in orthogonal box = (-50 -50 -1) to (50 50 1)
  create_atoms CPU = 0.000 seconds
Created 50 atoms
  using lattice units in orthogonal box = (-50 -50 -1) to (50 50 1)
  create_atoms CPU = 0.000 seconds
Created 50 atoms
  using lattice units in orthogonal box = (-50 -50 -1) to (50 50 1)
  create_atoms CPU = 0.000 seconds
Created 50 atoms
  using lattice units in orthogonal box = (-50 -50 -1) to (50 50 1)
  create_atoms CPU = 0.000 seconds
Created 50 atoms
  using lattice units in orthogonal box = (-50 -50 -1) to (50 50 1)
  create_atoms CPU = 0.000 seconds
Created 50 atoms
  using lattice units in orthogonal box = (-50 -50 -1) to (50 50 1)
  create_atoms CPU = 0.000 seconds
Created 50 atoms
  using lattice units in orthogonal box = (-50 -50 -1) to (50 50 1)
  create_atoms CPU = 0.000 seconds
Created 50 atoms
  using lattice units in orthogonal box = (-50 -50 -1) to (50 50 1)
  create_atoms CPU = 0.000 seconds
Created 50 atoms
  using lattice units in orthogonal box = (-50 -50 -1) to (50 50 1)
  create_atoms CPU = 0.000 seconds
Created 50 atoms
  using lattice units in orthogonal box = (-50 -50 -1) to (50 50 1)
  create_atoms CPU = 0.000 seconds
Created 50 atoms
  using lattice units in orthogonal box = (-50 -50 -1) to (50 50 1)
  create_atoms CPU = 0.000 seconds
Created 50 atoms
  using lattice units in orthogonal box = (-50 -50 -1) to (50 50 1)
  create_atoms CPU = 0.000 seconds
Created 50 atoms
  using lattice units in orthogonal box = (-50 -50 -1) to (50 50 1)
  create_atoms CPU = 0.000 seconds
Created 50 atoms
  using lattice units in orthogonal box = (-50 -50 -1) to (50 50 1)
  create_atoms CPU = 0.000 seconds
Created 50 atoms
  using lattice units in orthogonal box = (-50 -50 -1) to (50 50 1)
  create_atoms CPU = 0.000 seconds
Created 50 atoms
  using lattice units in orthogonal box = (-50 -50 -1) to (50 50 1)
  create_atoms CPU = 0.000 seconds
Created 50 atoms
  using lattice units in orthogonal box = (-50 -50 -1) to (50 50 1)
  create_atoms CPU = 0.000 seconds
Created 50 atoms
  using lattice units in orthogonal box = (-50 -50 -1) to (50 50 1)
  create_atoms CPU = 0.000 seconds
Created 50 atoms
  using lattice units in orthogonal box = (-50 -50 -1) to (50 50 1)
  create_atoms CPU = 0.000 seconds
Created 50 atoms
  using lattice units in orthogonal box = (-50 -50 -1) to (50 50 1)
  create_atoms CPU = 0.000 seconds
Created 50 atoms
  using lattice units in orthogonal box = (-50 -50 -1) to (50 50 1)
  create_atoms CPU = 0.000 seconds
Created 50 atoms
  using lattice units in orthogonal box = (-50 -50 -1) to (50 50 1)
  create_atoms CPU = 0.000 seconds
Created 50 atoms
  using lattice units in orthogonal box = (-50 -50 -1) to (50 50 1)
  create_atoms CPU = 0.000 seconds
Created 50 atoms
  using lattice units in orthogonal box = (-50 -50 -1) to (50 50 1)
  create_atoms CPU = 0.000 seconds
Created 50 atoms
  using lattice units in orthogonal box = (-50 -50 -1) to (50 50 1)
  create_atoms CPU = 0.000 seconds
Created 50 atoms
  using lattice units in orthogonal box = (-50 -50 -1) to (50 50 1)
  create_atoms CPU = 0.000 seconds
Created 50 atoms
  using lattice units in orthogonal box = (-50 -50 -1) to (50 50 1)
  create_atoms CPU = 0.000 seconds
Created 50 atoms
  using lattice units in orthogonal box = (-50 -50 -1) to (50 50 1)
  create_atoms CPU = 0.000 seconds
Created 50 atoms
  using lattice units in orthogonal box = (-50 -50 -1) to (50 50 1)
  create_atoms CPU = 0.000 seconds
Created 50 atoms
  using lattice units in orthogonal box = (-50 -50 -1) to (50 50 1)
  create_atoms CPU = 0.000 seconds
Created 50 atoms
  using lattice units in orthogonal box = (-50 -50 -1) to (50 50 1)
  create_atoms CPU = 0.000 seconds
Created 50 atoms
  using lattice units in orthogonal box = (-50 -50 -1) to (50 50 1)
  create_atoms CPU = 0.000 seconds
Created 50 atoms
  using lattice units in orthogonal box = (-50 -50 -1) to (50 50 1)
  create_atoms CPU = 0.000 seconds
Created 50 atoms
  using lattice units in orthogonal box = (-50 -50 -1) to (50 50 1)
  create_atoms CPU = 0.000 seconds
Created 50 atoms
  using lattice units in orthogonal box = (-50 -50 -1) to (50 50 1)
  create_atoms CPU = 0.000 seconds
Created 50 atoms
  using lattice units in orthogonal box = (-50 -50 -1) to (50 50 1)
  create_atoms CPU = 0.000 seconds
Created 50 atoms
  using lattice units in orthogonal box = (-50 -50 -1) to (50 50 1)
  create_atoms CPU = 0.000 seconds
Created 50 atoms
  using lattice units in orthogonal box = (-50 -50 -1) to (50 50 1)
  create_atoms CPU = 0.000 seconds
Created 50 atoms
  using lattice units in orthogonal box = (-50 -50 -1) to (50 50 1)
  create_atoms CPU = 0.000 seconds
Created 50 atoms
  using lattice units in orthogonal box = (-50 -50 -1) to (50 50 1)
  create_atoms CPU = 0.000 seconds
Created 50 atoms
  using lattice units in orthogonal box = (-50 -50 -1) to (50 50 1)
  create_atoms CPU = 0.000 seconds
Created 50 atoms
  using lattice units in orthogonal box = (-50 -50 -1) to (50 50 1)
  create_atoms CPU = 0.000 seconds
Created 50 atoms
  using lattice units in orthogonal box = (-50 -50 -1) to (50 50 1)
  create_atoms CPU = 0.000 seconds
Created 50 atoms
  using lattice units in orthogonal box = (-50 -50 -1) to (50 50 1)
  create_atoms CPU = 0.000 seconds
Created 50 atoms
  using lattice units in orthogonal box = (-50 -50 -1) to (50 50 1)
  create_atoms CPU = 0.000 seconds
Created 50 atoms
  using lattice units in orthogonal box = (-50 -50 -1) to (50 50 1)
  create_atoms CPU = 0.000 seconds
Created 50 atoms
  using lattice units in orthogonal box = (-50 -50 -1) to (50 50 1)
  create_atoms CPU = 0.000 seconds
Created 50 atoms
  using lattice units in orthogonal box = (-50 -50 -1) to (50 50 1)
  create_atoms CPU = 0.000 seconds
Created 50 atoms
  using lattice units in orthogonal box = (-50 -50 -1) to (50 50 1)
  create_atoms CPU = 0.000 seconds
Created 50 atoms
  using lattice units in orthogonal box = (-50 -50 -1) to (50 50 1)
  create_atoms CPU = 0.000 seconds
Created 50 atoms
  using lattice units in orthogonal box = (-50 -50 -1) to (50 50 1)
  create_atoms CPU = 0.000 seconds
Created 50 atoms
  using lattice units in orthogonal box = (-50 -50 -1) to (50 50 1)
  create_atoms CPU = 0.000 seconds
Created 50 atoms
  using lattice units in orthogonal box = (-50 -50 -1) to (50 50 1)
  create_atoms CPU = 0.000 seconds
Created 50 atoms
  using lattice units in orthogonal box = (-50 -50 -1) to (50 50 1)
  create_atoms CPU = 0.000 seconds
Created 50 atoms
  using lattice units in orthogonal box = (-50 -50 -1) to (50 50 1)
  create_atoms CPU = 0.000 seconds
Created 50 atoms
  using lattice units in orthogonal box = (-50 -50 -1) to (50 50 1)
  create_atoms CPU = 0.000 seconds
Created 50 atoms
  using lattice units in orthogonal box = (-50 -50 -1) to (50 50 1)
  create_atoms CPU = 0.000 seconds
Created 50 atoms
  using lattice units in orthogonal box = (-50 -50 -1) to (50 50 1)
  create_atoms CPU = 0.000 seconds
Created 50 atoms
  using lattice units in orthogonal box = (-50 -50 -1) to (50 50 1)
  create_atoms CPU = 0.000 seconds
Created 50 atoms
  using lattice units in orthogonal box = (-50 -50 -1) to (50 50 1)
  create_atoms CPU = 0.000 seconds
Created 50 atoms
  using lattice units in orthogonal box = (-50 -50 -1) to (50 50 1)
  create_atoms CPU = 0.000 seconds
Created 50 atoms
  using lattice units in orthogonal box = (-50 -50 -1) to (50 50 1)
  create_atoms CPU = 0.000 seconds
Created 50 atoms
  using lattice units in orthogonal box = (-50 -50 -1) to (50 50 1)
  create_atoms CPU = 0.000 seconds
Created 50 atoms
  using lattice units in orthogonal box = (-50 -50 -1) to (50 50 1)
  create_atoms CPU = 0.000 seconds
Created 50 atoms
  using lattice units in orthogonal box = (-50 -50 -1) to (50 50 1)
  create_atoms CPU = 0.000 seconds
Created 50 atoms
  using lattice units in orthogonal box = (-50 -50 -1) to (50 50 1)
  create_atoms CPU = 0.000 seconds
Created 50 atoms
  using lattice units in orthogonal box = (-50 -50 -1) to (50 50 1)
  create_atoms CPU = 0.000 seconds
Created 50 atoms
  using lattice units in orthogonal box = (-50 -50 -1) to (50 50 1)
  create_atoms CPU = 0.000 seconds
Created 50 atoms
  using lattice units in orthogonal box = (-50 -50 -1) to (50 50 1)
  create_atoms CPU = 0.000 seconds
Created 50 atoms
  using lattice units in orthogonal box = (-50 -50 -1) to (50 50 1)
  create_atoms CPU = 0.000 seconds
Created 50 atoms
  using lattice units in orthogonal box = (-50 -50 -1) to (50 50 1)
  create_atoms CPU = 0.000 seconds
Created 50 atoms
  using lattice units in orthogonal box = (-50 -50 -1) to (50 50 1)
  create_atoms CPU = 0.000 seconds
Created 50 atoms
  using lattice units in orthogonal box = (-50 -50 -1) to (50 50 1)
  create_atoms CPU = 0.000 seconds
Created 50 atoms
  using lattice units in orthogonal box = (-50 -50 -1) to (50 50 1)
  create_atoms CPU = 0.000 seconds
Created 50 atoms
  using lattice units in orthogonal box = (-50 -50 -1) to (50 50 1)
  create_atoms CPU = 0.000 seconds
Created 50 atoms
  using lattice units in orthogonal box = (-50 -50 -1) to (50 50 1)
  create_atoms CPU = 0.000 seconds
Created 50 atoms
  using lattice units in orthogonal box = (-50 -50 -1) to (50 50 1)
  create_atoms CPU = 0.000 seconds
Created 50 atoms
  using lattice units in orthogonal box = (-50 -50 -1) to (50 50 1)
  create_atoms CPU = 0.000 seconds
Created 50 atoms
  using lattice units in orthogonal box = (-50 -50 -1) to (50 50 1)
  create_atoms CPU = 0.000 seconds
Created 50 atoms
  using lattice units in orthogonal box = (-50 -50 -1) to (50 50 1)
  create_atoms CPU = 0.000 seconds
Created 50 atoms
  using lattice units in orthogonal box = (-50 -50 -1) to (50 50 1)
  create_atoms CPU = 0.000 seconds
Created 50 atoms
  using lattice units in orthogonal box = (-50 -50 -1) to (50 50 1)
  create_atoms CPU = 0.000 seconds
Created 50 atoms
  using lattice units in orthogonal box = (-50 -50 -1) to (50 50 1)
  create_atoms CPU = 0.000 seconds
Created 50 atoms
  using lattice units in orthogonal box = (-50 -50 -1) to (50 50 1)
  create_atoms CPU = 0.000 seconds
Created 50 atoms
  using lattice units in orthogonal box = (-50 -50 -1) to (50 50 1)
  create_atoms CPU = 0.000 seconds
Created 50 atoms
  using lattice units in orthogonal box = (-50 -50 -1) to (50 50 1)
  create_atoms CPU = 0.000 seconds
Created 50 atoms
  using lattice units in orthogonal box = (-50 -50 -1) to (50 50 1)
  create_atoms CPU = 0.000 seconds
Created 50 atoms
  using lattice units in orthogonal box = (-50 -50 -1) to (50 50 1)
  create_atoms CPU = 0.000 seconds
Created 50 atoms
  using lattice units in orthogonal box = (-50 -50 -1) to (50 50 1)
  create_atoms CPU = 0.000 seconds
Created 50 atoms
  using lattice units in orthogonal box = (-50 -50 -1) to (50 50 1)
  create_atoms CPU = 0.000 seconds
Created 50 atoms
  using lattice units in orthogonal box = (-50 -50 -1) to (50 50 1)
  create_atoms CPU = 0.000 seconds
Created 50 atoms
  using lattice units in orthogonal box = (-50 -50 -1) to (50 50 1)
  create_atoms CPU = 0.000 seconds
Created 50 atoms
  using lattice units in orthogonal box = (-50 -50 -1) to (50 50 1)
  create_atoms CPU = 0.000 seconds
Created 50 atoms
  using lattice units in orthogonal box = (-50 -50 -1) to (50 50 1)
  create_atoms CPU = 0.000 seconds
Created 50 atoms
  using lattice units in orthogonal box = (-50 -50 -1) to (50 50 1)
  create_atoms CPU = 0.000 seconds
Created 50 atoms
  using lattice units in orthogonal box = (-50 -50 -1) to (50 50 1)
  create_atoms CPU = 0.000 seconds
Created 50 atoms
  using lattice units in orthogonal box = (-50 -50 -1) to (50 50 1)
  create_atoms CPU = 0.000 seconds
Created 50 atoms
  using lattice units in orthogonal box = (-50 -50 -1) to (50 50 1)
  create_atoms CPU = 0.000 seconds
Created 50 atoms
  using lattice units in orthogonal box = (-50 -50 -1) to (50 50 1)
  create_atoms CPU = 0.000 seconds
Created 50 atoms
  using lattice units in orthogonal box = (-50 -50 -1) to (50 50 1)
  create_atoms CPU = 0.000 seconds
Created 50 atoms
  using lattice units in orthogonal box = (-50 -50 -1) to (50 50 1)
  create_atoms CPU = 0.000 seconds
Created 50 atoms
  using lattice units in orthogonal box = (-50 -50 -1) to (50 50 1)
  create_atoms CPU = 0.000 seconds
Created 50 atoms
  using lattice units in orthogonal box = (-50 -50 -1) to (50 50 1)
  create_atoms CPU = 0.000 seconds
Created 50 atoms
  using lattice units in orthogonal box = (-50 -50 -1) to (50 50 1)
  create_atoms CPU = 0.000 seconds
Created 50 atoms
  using lattice units in orthogonal box = (-50 -50 -1) to (50 50 1)
  create_atoms CPU = 0.000 seconds
Created 50 atoms
  using lattice units in orthogonal box = (-50 -50 -1) to (50 50 1)
  create_atoms CPU = 0.000 seconds
Created 50 atoms
  using lattice units in orthogonal box = (-50 -50 -1) to (50 50 1)
  create_atoms CPU = 0.000 seconds
Created 50 atoms
  using lattice units in orthogonal box = (-50 -50 -1) to (50 50 1)
  create_atoms CPU = 0.000 seconds
Created 50 atoms
  using lattice units in orthogonal box = (-50 -50 -1) to (50 50 1)
  create_atoms CPU = 0.000 seconds
Created 50 atoms
  using lattice units in orthogonal box = (-50 -50 -1) to (50 50 1)
  create_atoms CPU = 0.000 seconds
Created 50 atoms
  using lattice units in orthogonal box = (-50 -50 -1) to (50 50 1)
  create_atoms CPU = 0.000 seconds
Created 50 atoms
  using lattice units in orthogonal box = (-50 -50 -1) to (50 50 1)
  create_atoms CPU = 0.000 seconds
Created 50 atoms
  using lattice units in orthogonal box = (-50 -50 -1) to (50 50 1)
  create_atoms CPU = 0.000 seconds
Created 50 atoms
  using lattice units in orthogonal box = (-50 -50 -1) to (50 50 1)
  create_atoms CPU = 0.000 seconds
Created 50 atoms
  using lattice units in orthogonal box = (-50 -50 -1) to (50 50 1)
  create_atoms CPU = 0.000 seconds
Created 50 atoms
  using lattice units in orthogonal box = (-50 -50 -1) to (50 50 1)
  create_atoms CPU = 0.000 seconds
Created 50 atoms
  using lattice units in orthogonal box = (-50 -50 -1) to (50 50 1)
  create_atoms CPU = 0.000 seconds
Created 50 atoms
  using lattice units in orthogonal box = (-50 -50 -1) to (50 50 1)
  create_atoms CPU = 0.000 seconds
Created 50 atoms
  using lattice units in orthogonal box = (-50 -50 -1) to (50 50 1)
  create_atoms CPU = 0.000 seconds
Created 50 atoms
  using lattice units in orthogonal box = (-50 -50 -1) to (50 50 1)
  create_atoms CPU = 0.000 seconds
Created 50 atoms
  using lattice units in orthogonal box = (-50 -50 -1) to (50 50 1)
  create_atoms CPU = 0.000 seconds
Created 50 atoms
  using lattice units in orthogonal box = (-50 -50 -1) to (50 50 1)
  create_atoms CPU = 0.000 seconds
Created 50 atoms
  using lattice units in orthogonal box = (-50 -50 -1) to (50 50 1)
  create_atoms CPU = 0.000 seconds
Created 50 atoms
  using lattice units in orthogonal box = (-50 -50 -1) to (50 50 1)
  create_atoms CPU = 0.000 seconds
Created 50 atoms
  using lattice units in orthogonal box = (-50 -50 -1) to (50 50 1)
  create_atoms CPU = 0.000 seconds
Created 50 atoms
  using lattice units in orthogonal box = (-50 -50 -1) to (50 50 1)
  create_atoms CPU = 0.000 seconds
Created 50 atoms
  using lattice units in orthogonal box = (-50 -50 -1) to (50 50 1)
  create_atoms CPU = 0.000 seconds
Created 50 atoms
  using lattice units in orthogonal box = (-50 -50 -1) to (50 50 1)
  create_atoms CPU = 0.000 seconds
Created 50 atoms
  using lattice units in orthogonal box = (-50 -50 -1) to (50 50 1)
  create_atoms CPU = 0.000 seconds
Created 50 atoms
  using lattice units in orthogonal box = (-50 -50 -1) to (50 50 1)
  create_atoms CPU = 0.000 seconds
Created 50 atoms
  using lattice units in orthogonal box = (-50 -50 -1) to (50 50 1)
  create_atoms CPU = 0.000 seconds
Created 50 atoms
  using lattice units in orthogonal box = (-50 -50 -1) to (50 50 1)
  create_atoms CPU = 0.000 seconds
Created 50 atoms
  using lattice units in orthogonal box = (-50 -50 -1) to (50 50 1)
  create_atoms CPU = 0.000 seconds
Created 50 atoms
  using lattice units in orthogonal box = (-50 -50 -1) to (50 50 1)
  create_atoms CPU = 0.000 seconds
Created 50 atoms
  using lattice units in orthogonal box = (-50 -50 -1) to (50 50 1)
  create_atoms CPU = 0.000 seconds
Created 50 atoms
  using lattice units in orthogonal box = (-50 -50 -1) to (50 50 1)
  create_atoms CPU = 0.000 seconds
Created 50 atoms
  using lattice units in orthogonal box = (-50 -50 -1) to (50 50 1)
  create_atoms CPU = 0.000 seconds
Created 50 atoms
  using lattice units in orthogonal box = (-50 -50 -1) to (50 50 1)
  create_atoms CPU = 0.000 seconds
Created 50 atoms
  using lattice units in orthogonal box = (-50 -50 -1) to (50 50 1)
  create_atoms CPU = 0.000 seconds
Created 50 atoms
  using lattice units in orthogonal box = (-50 -50 -1) to (50 50 1)
  create_atoms CPU = 0.000 seconds
Created 50 atoms
  using lattice units in orthogonal box = (-50 -50 -1) to (50 50 1)
  create_atoms CPU = 0.000 seconds
Created 50 atoms
  using lattice units in orthogonal box = (-50 -50 -1) to (50 50 1)
  create_atoms CPU = 0.000 seconds
Created 50 atoms
  using lattice units in orthogonal box = (-50 -50 -1) to (50 50 1)
  create_atoms CPU = 0.000 seconds
Created 50 atoms
  using lattice units in orthogonal box = (-50 -50 -1) to (50 50 1)
  create_atoms CPU = 0.000 seconds
Created 50 atoms
  using lattice units in orthogonal box = (-50 -50 -1) to (50 50 1)
  create_atoms CPU = 0.000 seconds
Created 50 atoms
  using lattice units in orthogonal box = (-50 -50 -1) to (50 50 1)
  create_atoms CPU = 0.000 seconds
Created 50 atoms
  using lattice units in orthogonal box = (-50 -50 -1) to (50 50 1)
  create_atoms CPU = 0.000 seconds
Created 50 atoms
  using lattice units in orthogonal box = (-50 -50 -1) to (50 50 1)
  create_atoms CPU = 0.000 seconds
Created 50 atoms
  using lattice units in orthogonal box = (-50 -50 -1) to (50 50 1)
  create_atoms CPU = 0.000 seconds
Created 50 atoms
  using lattice units in orthogonal box = (-50 -50 -1) to (50 50 1)
  create_atoms CPU = 0.000 seconds
Created 50 atoms
  using lattice units in orthogonal box = (-50 -50 -1) to (50 50 1)
  create_atoms CPU = 0.000 seconds
Created 50 atoms
  using lattice units in orthogonal box = (-50 -50 -1) to (50 50 1)
  create_atoms CPU = 0.000 seconds
Created 50 atoms
  using lattice units in orthogonal box = (-50 -50 -1) to (50 50 1)
  create_atoms CPU = 0.000 seconds
Created 50 atoms
  using lattice units in orthogonal box = (-50 -50 -1) to (50 50 1)
  create_atoms CPU = 0.000 seconds
Created 50 atoms
  using lattice units in orthogonal box = (-50 -50 -1) to (50 50 1)
  create_atoms CPU = 0.000 seconds
Created 50 atoms
  using lattice units in orthogonal box = (-50 -50 -1) to (50 50 1)
  create_atoms CPU = 0.000 seconds
Created 50 atoms
  using lattice units in orthogonal box = (-50 -50 -1) to (50 50 1)
  create_atoms CPU = 0.000 seconds
Created 50 atoms
  using lattice units in orthogonal box = (-50 -50 -1) to (50 50 1)
  create_atoms CPU = 0.000 seconds
Created 50 atoms
  using lattice units in orthogonal box = (-50 -50 -1) to (50 50 1)
  create_atoms CPU = 0.000 seconds
Created 50 atoms
  using lattice units in orthogonal box = (-50 -50 -1) to (50 50 1)
  create_atoms CPU = 0.000 seconds
Created 50 atoms
  using lattice units in orthogonal box = (-50 -50 -1) to (50 50 1)
  create_atoms CPU = 0.000 seconds
Created 50 atoms
  using lattice units in orthogonal box = (-50 -50 -1) to (50 50 1)
  create_atoms CPU = 0.000 seconds
Created 50 atoms
  using lattice units in orthogonal box = (-50 -50 -1) to (50 50 1)
  create_atoms CPU = 0.000 seconds
Created 50 atoms
  using lattice units in orthogonal box = (-50 -50 -1) to (50 50 1)
  create_atoms CPU = 0.000 seconds
Created 50 atoms
  using lattice units in orthogonal box = (-50 -50 -1) to (50 50 1)
  create_atoms CPU = 0.000 seconds
Created 50 atoms
  using lattice units in orthogonal box = (-50 -50 -1) to (50 50 1)
  create_atoms CPU = 0.000 seconds
Created 50 atoms
  using lattice units in orthogonal box = (-50 -50 -1) to (50 50 1)
  create_atoms CPU = 0.000 seconds
Created 50 atoms
  using lattice units in orthogonal box = (-50 -50 -1) to (50 50 1)
  create_atoms CPU = 0.000 seconds
Created 50 atoms
  using lattice units in orthogonal box = (-50 -50 -1) to (50 50 1)
  create_atoms CPU = 0.000 seconds
Created 50 atoms
  using lattice units in orthogonal box = (-50 -50 -1) to (50 50 1)
  create_atoms CPU = 0.000 seconds
Created 50 atoms
  using lattice units in orthogonal box = (-50 -50 -1) to (50 50 1)
  create_atoms CPU = 0.000 seconds
Created 50 atoms
  using lattice units in orthogonal box = (-50 -50 -1) to (50 50 1)
  create_atoms CPU = 0.000 seconds
Created 50 atoms
  using lattice units in orthogonal box = (-50 -50 -1) to (50 50 1)
  create_atoms CPU = 0.000 seconds
Created 50 atoms
  using lattice units in orthogonal box = (-50 -50 -1) to (50 50 1)
  create_atoms CPU = 0.000 seconds
Created 50 atoms
  using lattice units in orthogonal box = (-50 -50 -1) to (50 50 1)
  create_atoms CPU = 0.000 seconds
Created 50 atoms
  using lattice units in orthogonal box = (-50 -50 -1) to (50 50 1)
  create_atoms CPU = 0.000 seconds
Created 50 atoms
  using lattice units in orthogonal box = (-50 -50 -1) to (50 50 1)
  create_atoms CPU = 0.000 seconds
Created 50 atoms
  using lattice units in orthogonal box = (-50 -50 -1) to (50 50 1)
  create_atoms CPU = 0.000 seconds
Created 50 atoms
  using lattice units in orthogonal box = (-50 -50 -1) to (50 50 1)
  create_atoms CPU = 0.000 seconds
Created 50 atoms
  using lattice units in orthogonal box = (-50 -50 -1) to (50 50 1)
  create_atoms CPU = 0.000 seconds
Created 50 atoms
  using lattice units in orthogonal box = (-50 -50 -1) to (50 50 1)
  create_atoms CPU = 0.000 seconds
Created 50 atoms
  using lattice units in orthogonal box = (-50 -50 -1) to (50 50 1)
  create_atoms CPU = 0.000 seconds
Created 50 atoms
  using lattice units in orthogonal box = (-50 -50 -1) to (50 50 1)
  create_atoms CPU = 0.000 seconds
Created 50 atoms
  using lattice units in orthogonal box = (-50 -50 -1) to (50 50 1)
  create_atoms CPU = 0.000 seconds
Created 50 atoms
  using lattice units in orthogonal box = (-50 -50 -1) to (50 50 1)
  create_atoms CPU = 0.000 seconds
Created 50 atoms
  using lattice units in orthogonal box = (-50 -50 -1) to (50 50 1)
  create_atoms CPU = 0.000 seconds
Created 50 atoms
  using lattice units in orthogonal box = (-50 -50 -1) to (50 50 1)
  create_atoms CPU = 0.000 seconds
Created 50 atoms
  using lattice units in orthogonal box = (-50 -50 -1) to (50 50 1)
  create_atoms CPU = 0.000 seconds
Created 50 atoms
  using lattice units in orthogonal box = (-50 -50 -1) to (50 50 1)
  create_atoms CPU = 0.000 seconds
Created 50 atoms
  using lattice units in orthogonal box = (-50 -50 -1) to (50 50 1)
  create_atoms CPU = 0.000 seconds
Created 50 atoms
  using lattice units in orthogonal box = (-50 -50 -1) to (50 50 1)
  create_atoms CPU = 0.000 seconds
Created 50 atoms
  using lattice units in orthogonal box = (-50 -50 -1) to (50 50 1)
  create_atoms CPU = 0.000 seconds
Created 50 atoms
  using lattice units in orthogonal box = (-50 -50 -1) to (50 50 1)
  create_atoms CPU = 0.000 seconds
Created 50 atoms
  using lattice units in orthogonal box = (-50 -50 -1) to (50 50 1)
  create_atoms CPU = 0.000 seconds
Created 50 atoms
  using lattice units in orthogonal box = (-50 -50 -1) to (50 50 1)
  create_atoms CPU = 0.000 seconds
Created 50 atoms
  using lattice units in orthogonal box = (-50 -50 -1) to (50 50 1)
  create_atoms CPU = 0.000 seconds
Created 50 atoms
  using lattice units in orthogonal box = (-50 -50 -1) to (50 50 1)
  create_atoms CPU = 0.000 seconds
Created 50 atoms
  using lattice units in orthogonal box = (-50 -50 -1) to (50 50 1)
  create_atoms CPU = 0.000 seconds
Created 50 atoms
  using lattice units in orthogonal box = (-50 -50 -1) to (50 50 1)
  create_atoms CPU = 0.000 seconds
Created 50 atoms
  using lattice units in orthogonal box = (-50 -50 -1) to (50 50 1)
  create_atoms CPU = 0.000 seconds
Created 50 atoms
  using lattice units in orthogonal box = (-50 -50 -1) to (50 50 1)
  create_atoms CPU = 0.000 seconds
Created 50 atoms
  using lattice units in orthogonal box = (-50 -50 -1) to (50 50 1)
  create_atoms CPU = 0.000 seconds
Created 50 atoms
  using lattice units in orthogonal box = (-50 -50 -1) to (50 50 1)
  create_atoms CPU = 0.000 seconds
Created 50 atoms
  using lattice units in orthogonal box = (-50 -50 -1) to (50 50 1)
  create_atoms CPU = 0.000 seconds
Created 50 atoms
  using lattice units in orthogonal box = (-50 -50 -1) to (50 50 1)
  create_atoms CPU = 0.000 seconds
Created 50 atoms
  using lattice units in orthogonal box = (-50 -50 -1) to (50 50 1)
  create_atoms CPU = 0.000 seconds
Created 50 atoms
  using lattice units in orthogonal box = (-50 -50 -1) to (50 50 1)
  create_atoms CPU = 0.000 seconds
Created 50 atoms
  using lattice units in orthogonal box = (-50 -50 -1) to (50 50 1)
  create_atoms CPU = 0.000 seconds
Created 50 atoms
  using lattice units in orthogonal box = (-50 -50 -1) to (50 50 1)
  create_atoms CPU = 0.000 seconds
Created 50 atoms
  using lattice units in orthogonal box = (-50 -50 -1) to (50 50 1)
  create_atoms CPU = 0.000 seconds
Created 50 atoms
  using lattice units in orthogonal box = (-50 -50 -1) to (50 50 1)
  create_atoms CPU = 0.000 seconds
Created 50 atoms
  using lattice units in orthogonal box = (-50 -50 -1) to (50 50 1)
  create_atoms CPU = 0.000 seconds
Created 50 atoms
  using lattice units in orthogonal box = (-50 -50 -1) to (50 50 1)
  create_atoms CPU = 0.000 seconds
Created 50 atoms
  using lattice units in orthogonal box = (-50 -50 -1) to (50 50 1)
  create_atoms CPU = 0.000 seconds
Created 50 atoms
  using lattice units in orthogonal box = (-50 -50 -1) to (50 50 1)
  create_atoms CPU = 0.000 seconds
Created 50 atoms
  using lattice units in orthogonal box = (-50 -50 -1) to (50 50 1)
  create_atoms CPU = 0.000 seconds
Created 50 atoms
  using lattice units in orthogonal box = (-50 -50 -1) to (50 50 1)
  create_atoms CPU = 0.000 seconds
Created 50 atoms
  using lattice units in orthogonal box = (-50 -50 -1) to (50 50 1)
  create_atoms CPU = 0.000 seconds
Created 50 atoms
  using lattice units in orthogonal box = (-50 -50 -1) to (50 50 1)
  create_atoms CPU = 0.000 seconds
Created 50 atoms
  using lattice units in orthogonal box = (-50 -50 -1) to (50 50 1)
  create_atoms CPU = 0.000 seconds
Created 50 atoms
  using lattice units in orthogonal box = (-50 -50 -1) to (50 50 1)
  create_atoms CPU = 0.000 seconds
Created 50 atoms
  using lattice units in orthogonal box = (-50 -50 -1) to (50 50 1)
  create_atoms CPU = 0.000 seconds
Created 50 atoms
  using lattice units in orthogonal box = (-50 -50 -1) to (50 50 1)
  create_atoms CPU = 0.000 seconds
Created 50 atoms
  using lattice units in orthogonal box = (-50 -50 -1) to (50 50 1)
  create_atoms CPU = 0.000 seconds
Created 50 atoms
  using lattice units in orthogonal box = (-50 -50 -1) to (50 50 1)
  create_atoms CPU = 0.000 seconds
Created 50 atoms
  using lattice units in orthogonal box = (-50 -50 -1) to (50 50 1)
  create_atoms CPU = 0.000 seconds
Created 50 atoms
  using lattice units in orthogonal box = (-50 -50 -1) to (50 50 1)
  create_atoms CPU = 0.000 seconds
Created 50 atoms
  using lattice units in orthogonal box = (-50 -50 -1) to (50 50 1)
  create_atoms CPU = 0.000 seconds
Created 50 atoms
  using lattice units in orthogonal box = (-50 -50 -1) to (50 50 1)
  create_atoms CPU = 0.000 seconds
Created 50 atoms
  using lattice units in orthogonal box = (-50 -50 -1) to (50 50 1)
  create_atoms CPU = 0.000 seconds
Created 50 atoms
  using lattice units in orthogonal box = (-50 -50 -1) to (50 50 1)
  create_atoms CPU = 0.000 seconds
Created 50 atoms
  using lattice units in orthogonal box = (-50 -50 -1) to (50 50 1)
  create_atoms CPU = 0.000 seconds
Created 50 atoms
  using lattice units in orthogonal box = (-50 -50 -1) to (50 50 1)
  create_atoms CPU = 0.000 seconds
Created 50 atoms
  using lattice units in orthogonal box = (-50 -50 -1) to (50 50 1)
  create_atoms CPU = 0.000 seconds
Created 50 atoms
  using lattice units in orthogonal box = (-50 -50 -1) to (50 50 1)
  create_atoms CPU = 0.000 seconds
Created 50 atoms
  using lattice units in orthogonal box = (-50 -50 -1) to (50 50 1)
  create_atoms CPU = 0.000 seconds
Created 50 atoms
  using lattice units in orthogonal box = (-50 -50 -1) to (50 50 1)
  create_atoms CPU = 0.000 seconds
Created 50 atoms
  using lattice units in orthogonal box = (-50 -50 -1) to (50 50 1)
  create_atoms CPU = 0.000 seconds
Created 50 atoms
  using lattice units in orthogonal box = (-50 -50 -1) to (50 50 1)
  create_atoms CPU = 0.000 seconds
Created 50 atoms
  using lattice units in orthogonal box = (-50 -50 -1) to (50 50 1)
  create_atoms CPU = 0.000 seconds
Created 50 atoms
  using lattice units in orthogonal box = (-50 -50 -1) to (50 50 1)
  create_atoms CPU = 0.000 seconds
Created 50 atoms
  using lattice units in orthogonal box = (-50 -50 -1) to (50 50 1)
  create_atoms CPU = 0.000 seconds
Created 50 atoms
  using lattice units in orthogonal box = (-50 -50 -1) to (50 50 1)
  create_atoms CPU = 0.000 seconds
Created 50 atoms
  using lattice units in orthogonal box = (-50 -50 -1) to (50 50 1)
  create_atoms CPU = 0.000 seconds
Created 50 atoms
  using lattice units in orthogonal box = (-50 -50 -1) to (50 50 1)
  create_atoms CPU = 0.000 seconds
Created 50 atoms
  using lattice units in orthogonal box = (-50 -50 -1) to (50 50 1)
  create_atoms CPU = 0.000 seconds
Created 50 atoms
  using lattice units in orthogonal box = (-50 -50 -1) to (50 50 1)
  create_atoms CPU = 0.000 seconds
Created 50 atoms
  using lattice units in orthogonal box = (-50 -50 -1) to (50 50 1)
  create_atoms CPU = 0.000 seconds
Created 50 atoms
  using lattice units in orthogonal box = (-50 -50 -1) to (50 50 1)
  create_atoms CPU = 0.000 seconds
Created 50 atoms
  using lattice units in orthogonal box = (-50 -50 -1) to (50 50 1)
  create_atoms CPU = 0.000 seconds
Created 50 atoms
  using lattice units in orthogonal box = (-50 -50 -1) to (50 50 1)
  create_atoms CPU = 0.000 seconds
Created 50 atoms
  using lattice units in orthogonal box = (-50 -50 -1) to (50 50 1)
  create_atoms CPU = 0.000 seconds
Created 50 atoms
  using lattice units in orthogonal box = (-50 -50 -1) to (50 50 1)
  create_atoms CPU = 0.000 seconds
Created 50 atoms
  using lattice units in orthogonal box = (-50 -50 -1) to (50 50 1)
  create_atoms CPU = 0.000 seconds
Created 50 atoms
  using lattice units in orthogonal box = (-50 -50 -1) to (50 50 1)
  create_atoms CPU = 0.000 seconds
Created 50 atoms
  using lattice units in orthogonal box = (-50 -50 -1) to (50 50 1)
  create_atoms CPU = 0.000 seconds
Created 50 atoms
  using lattice units in orthogonal box = (-50 -50 -1) to (50 50 1)
  create_atoms CPU = 0.000 seconds
Created 50 atoms
  using lattice units in orthogonal box = (-50 -50 -1) to (50 50 1)
  create_atoms CPU = 0.000 seconds
Created 50 atoms
  using lattice units in orthogonal box = (-50 -50 -1) to (50 50 1)
  create_atoms CPU = 0.000 seconds
Created 50 atoms
  using lattice units in orthogonal box = (-50 -50 -1) to (50 50 1)
  create_atoms CPU = 0.000 seconds
Created 50 atoms
  using lattice units in orthogonal box = (-50 -50 -1) to (50 50 1)
  create_atoms CPU = 0.000 seconds
Created 50 atoms
  using lattice units in orthogonal box = (-50 -50 -1) to (50 50 1)
  create_atoms CPU = 0.000 seconds
Created 50 atoms
  using lattice units in orthogonal box = (-50 -50 -1) to (50 50 1)
  create_atoms CPU = 0.000 seconds
Created 50 atoms
  using lattice units in orthogonal box = (-50 -50 -1) to (50 50 1)
  create_atoms CPU = 0.000 seconds
Created 50 atoms
  using lattice units in orthogonal box = (-50 -50 -1) to (50 50 1)
  create_atoms CPU = 0.000 seconds
Created 50 atoms
  using lattice units in orthogonal box = (-50 -50 -1) to (50 50 1)
  create_atoms CPU = 0.000 seconds
Created 50 atoms
  using lattice units in orthogonal box = (-50 -50 -1) to (50 50 1)
  create_atoms CPU = 0.000 seconds
Created 50 atoms
  using lattice units in orthogonal box = (-50 -50 -1) to (50 50 1)
  create_atoms CPU = 0.000 seconds
Created 50 atoms
  using lattice units in orthogonal box = (-50 -50 -1) to (50 50 1)
  create_atoms CPU = 0.000 seconds
Created 50 atoms
  using lattice units in orthogonal box = (-50 -50 -1) to (50 50 1)
  create_atoms CPU = 0.000 seconds
Created 50 atoms
  using lattice units in orthogonal box = (-50 -50 -1) to (50 50 1)
  create_atoms CPU = 0.000 seconds
Created 50 atoms
  using lattice units in orthogonal box = (-50 -50 -1) to (50 50 1)
  create_atoms CPU = 0.000 seconds
Created 50 atoms
  using lattice units in orthogonal box = (-50 -50 -1) to (50 50 1)
  create_atoms CPU = 0.000 seconds
Created 50 atoms
  using lattice units in orthogonal box = (-50 -50 -1) to (50 50 1)
  create_atoms CPU = 0.000 seconds
Created 50 atoms
  using lattice units in orthogonal box = (-50 -50 -1) to (50 50 1)
  create_atoms CPU = 0.000 seconds
Created 50 atoms
  using lattice units in orthogonal box = (-50 -50 -1) to (50 50 1)
  create_atoms CPU = 0.000 seconds
Created 50 atoms
  using lattice units in orthogonal box = (-50 -50 -1) to (50 50 1)
  create_atoms CPU = 0.000 seconds
Created 50 atoms
  using lattice units in orthogonal box = (-50 -50 -1) to (50 50 1)
  create_atoms CPU = 0.000 seconds
Created 50 atoms
  using lattice units in orthogonal box = (-50 -50 -1) to (50 50 1)
  create_atoms CPU = 0.000 seconds
Created 50 atoms
  using lattice units in orthogonal box = (-50 -50 -1) to (50 50 1)
  create_atoms CPU = 0.000 seconds
Created 50 atoms
  using lattice units in orthogonal box = (-50 -50 -1) to (50 50 1)
  create_atoms CPU = 0.000 seconds
Created 50 atoms
  using lattice units in orthogonal box = (-50 -50 -1) to (50 50 1)
  create_atoms CPU = 0.000 seconds
Created 50 atoms
  using lattice units in orthogonal box = (-50 -50 -1) to (50 50 1)
  create_atoms CPU = 0.000 seconds
Created 50 atoms
  using lattice units in orthogonal box = (-50 -50 -1) to (50 50 1)
  create_atoms CPU = 0.000 seconds
Created 50 atoms
  using lattice units in orthogonal box = (-50 -50 -1) to (50 50 1)
  create_atoms CPU = 0.000 seconds
Created 50 atoms
  using lattice units in orthogonal box = (-50 -50 -1) to (50 50 1)
  create_atoms CPU = 0.000 seconds
Created 50 atoms
  using lattice units in orthogonal box = (-50 -50 -1) to (50 50 1)
  create_atoms CPU = 0.000 seconds
Created 50 atoms
  using lattice units in orthogonal box = (-50 -50 -1) to (50 50 1)
  create_atoms CPU = 0.000 seconds
Created 50 atoms
  using lattice units in orthogonal box = (-50 -50 -1) to (50 50 1)
  create_atoms CPU = 0.000 seconds
Created 50 atoms
  using lattice units in orthogonal box = (-50 -50 -1) to (50 50 1)
  create_atoms CPU = 0.000 seconds
Created 50 atoms
  using lattice units in orthogonal box = (-50 -50 -1) to (50 50 1)
  create_atoms CPU = 0.000 seconds
Created 50 atoms
  using lattice units in orthogonal box = (-50 -50 -1) to (50 50 1)
  create_atoms CPU = 0.000 seconds
Created 50 atoms
  using lattice units in orthogonal box = (-50 -50 -1) to (50 50 1)
  create_atoms CPU = 0.000 seconds
Created 50 atoms
  using lattice units in orthogonal box = (-50 -50 -1) to (50 50 1)
  create_atoms CPU = 0.000 seconds
Created 50 atoms
  using lattice units in orthogonal box = (-50 -50 -1) to (50 50 1)
  create_atoms CPU = 0.000 seconds
Created 50 atoms
  using lattice units in orthogonal box = (-50 -50 -1) to (50 50 1)
  create_atoms CPU = 0.000 seconds
Created 50 atoms
  using lattice units in orthogonal box = (-50 -50 -1) to (50 50 1)
  create_atoms CPU = 0.000 seconds
Created 50 atoms
  using lattice units in orthogonal box = (-50 -50 -1) to (50 50 1)
  create_atoms CPU = 0.000 seconds
Created 50 atoms
  using lattice units in orthogonal box = (-50 -50 -1) to (50 50 1)
  create_atoms CPU = 0.000 seconds
Created 50 atoms
  using lattice units in orthogonal box = (-50 -50 -1) to (50 50 1)
  create_atoms CPU = 0.000 seconds
Created 50 atoms
  using lattice units in orthogonal box = (-50 -50 -1) to (50 50 1)
  create_atoms CPU = 0.000 seconds
Created 50 atoms
  using lattice units in orthogonal box = (-50 -50 -1) to (50 50 1)
  create_atoms CPU = 0.000 seconds
Created 50 atoms
  using lattice units in orthogonal box = (-50 -50 -1) to (50 50 1)
  create_atoms CPU = 0.000 seconds
Created 50 atoms
  using lattice units in orthogonal box = (-50 -50 -1) to (50 50 1)
  create_atoms CPU = 0.000 seconds
Created 50 atoms
  using lattice units in orthogonal box = (-50 -50 -1) to (50 50 1)
  create_atoms CPU = 0.000 seconds
Created 50 atoms
  using lattice units in orthogonal box = (-50 -50 -1) to (50 50 1)
  create_atoms CPU = 0.000 seconds
Created 50 atoms
  using lattice units in orthogonal box = (-50 -50 -1) to (50 50 1)
  create_atoms CPU = 0.000 seconds
Created 50 atoms
  using lattice units in orthogonal box = (-50 -50 -1) to (50 50 1)
  create_atoms CPU = 0.000 seconds
Created 50 atoms
  using lattice units in orthogonal box = (-50 -50 -1) to (50 50 1)
  create_atoms CPU = 0.000 seconds
Created 50 atoms
  using lattice units in orthogonal box = (-50 -50 -1) to (50 50 1)
  create_atoms CPU = 0.000 seconds
Created 50 atoms
  using lattice units in orthogonal box = (-50 -50 -1) to (50 50 1)
  create_atoms CPU = 0.000 seconds
Created 50 atoms
  using lattice units in orthogonal box = (-50 -50 -1) to (50 50 1)
  create_atoms CPU = 0.000 seconds
Created 50 atoms
  using lattice units in orthogonal box = (-50 -50 -1) to (50 50 1)
  create_atoms CPU = 0.000 seconds
Created 50 atoms
  using lattice units in orthogonal box = (-50 -50 -1) to (50 50 1)
  create_atoms CPU = 0.000 seconds
Created 50 atoms
  using lattice units in orthogonal box = (-50 -50 -1) to (50 50 1)
  create_atoms CPU = 0.000 seconds
Created 50 atoms
  using lattice units in orthogonal box = (-50 -50 -1) to (50 50 1)
  create_atoms CPU = 0.000 seconds
Created 50 atoms
  using lattice units in orthogonal box = (-50 -50 -1) to (50 50 1)
  create_atoms CPU = 0.000 seconds
Created 50 atoms
  using lattice units in orthogonal box = (-50 -50 -1) to (50 50 1)
  create_atoms CPU = 0.000 seconds
Created 50 atoms
  using lattice units in orthogonal box = (-50 -50 -1) to (50 50 1)
  create_atoms CPU = 0.000 seconds
Created 50 atoms
  using lattice units in orthogonal box = (-50 -50 -1) to (50 50 1)
  create_atoms CPU = 0.000 seconds
Created 50 atoms
  using lattice units in orthogonal box = (-50 -50 -1) to (50 50 1)
  create_atoms CPU = 0.000 seconds
Created 50 atoms
  using lattice units in orthogonal box = (-50 -50 -1) to (50 50 1)
  create_atoms CPU = 0.000 seconds
Created 50 atoms
  using lattice units in orthogonal box = (-50 -50 -1) to (50 50 1)
  create_atoms CPU = 0.000 seconds
Created 50 atoms
  using lattice units in orthogonal box = (-50 -50 -1) to (50 50 1)
  create_atoms CPU = 0.000 seconds
Created 50 atoms
  using lattice units in orthogonal box = (-50 -50 -1) to (50 50 1)
  create_atoms CPU = 0.000 seconds
Created 50 atoms
  using lattice units in orthogonal box = (-50 -50 -1) to (50 50 1)
  create_atoms CPU = 0.000 seconds
Created 50 atoms
  using lattice units in orthogonal box = (-50 -50 -1) to (50 50 1)
  create_atoms CPU = 0.000 seconds
Created 50 atoms
  using lattice units in orthogonal box = (-50 -50 -1) to (50 50 1)
  create_atoms CPU = 0.000 seconds
Created 50 atoms
  using lattice units in orthogonal box = (-50 -50 -1) to (50 50 1)
  create_atoms CPU = 0.000 seconds
Created 50 atoms
  using lattice units in orthogonal box = (-50 -50 -1) to (50 50 1)
  create_atoms CPU = 0.000 seconds
Created 50 atoms
  using lattice units in orthogonal box = (-50 -50 -1) to (50 50 1)
  create_atoms CPU = 0.000 seconds
Created 50 atoms
  using lattice units in orthogonal box = (-50 -50 -1) to (50 50 1)
  create_atoms CPU = 0.000 seconds
Created 50 atoms
  using lattice units in orthogonal box = (-50 -50 -1) to (50 50 1)
  create_atoms CPU = 0.000 seconds
Created 50 atoms
  using lattice units in orthogonal box = (-50 -50 -1) to (50 50 1)
  create_atoms CPU = 0.000 seconds
Created 50 atoms
  using lattice units in orthogonal box = (-50 -50 -1) to (50 50 1)
  create_atoms CPU = 0.000 seconds
Created 50 atoms
  using lattice units in orthogonal box = (-50 -50 -1) to (50 50 1)
  create_atoms CPU = 0.000 seconds
Created 50 atoms
  using lattice units in orthogonal box = (-50 -50 -1) to (50 50 1)
  create_atoms CPU = 0.000 seconds
Created 50 atoms
  using lattice units in orthogonal box = (-50 -50 -1) to (50 50 1)
  create_atoms CPU = 0.000 seconds
Created 50 atoms
  using lattice units in orthogonal box = (-50 -50 -1) to (50 50 1)
  create_atoms CPU = 0.000 seconds
Created 50 atoms
  using lattice units in orthogonal box = (-50 -50 -1) to (50 50 1)
  create_atoms CPU = 0.000 seconds
Created 50 atoms
  using lattice units in orthogonal box = (-50 -50 -1) to (50 50 1)
  create_atoms CPU = 0.000 seconds
Created 50 atoms
  using lattice units in orthogonal box = (-50 -50 -1) to (50 50 1)
  create_atoms CPU = 0.000 seconds
Created 50 atoms
  using lattice units in orthogonal box = (-50 -50 -1) to (50 50 1)
  create_atoms CPU = 0.000 seconds
Created 50 atoms
  using lattice units in orthogonal box = (-50 -50 -1) to (50 50 1)
  create_atoms CPU = 0.000 seconds
Created 50 atoms
  using lattice units in orthogonal box = (-50 -50 -1) to (50 50 1)
  create_atoms CPU = 0.000 seconds
Created 50 atoms
  using lattice units in orthogonal box = (-50 -50 -1) to (50 50 1)
  create_atoms CPU = 0.000 seconds
Created 50 atoms
  using lattice units in orthogonal box = (-50 -50 -1) to (50 50 1)
  create_atoms CPU = 0.000 seconds
Created 50 atoms
  using lattice units in orthogonal box = (-50 -50 -1) to (50 50 1)
  create_atoms CPU = 0.000 seconds
Created 50 atoms
  using lattice units in orthogonal box = (-50 -50 -1) to (50 50 1)
  create_atoms CPU = 0.000 seconds
Created 50 atoms
  using lattice units in orthogonal box = (-50 -50 -1) to (50 50 1)
  create_atoms CPU = 0.000 seconds
Created 50 atoms
  using lattice units in orthogonal box = (-50 -50 -1) to (50 50 1)
  create_atoms CPU = 0.000 seconds
Created 50 atoms
  using lattice units in orthogonal box = (-50 -50 -1) to (50 50 1)
  create_atoms CPU = 0.000 seconds
Created 50 atoms
  using lattice units in orthogonal box = (-50 -50 -1) to (50 50 1)
  create_atoms CPU = 0.000 seconds
Created 50 atoms
  using lattice units in orthogonal box = (-50 -50 -1) to (50 50 1)
  create_atoms CPU = 0.000 seconds
Created 50 atoms
  using lattice units in orthogonal box = (-50 -50 -1) to (50 50 1)
  create_atoms CPU = 0.000 seconds
Created 50 atoms
  using lattice units in orthogonal box = (-50 -50 -1) to (50 50 1)
  create_atoms CPU = 0.000 seconds
Created 50 atoms
  using lattice units in orthogonal box = (-50 -50 -1) to (50 50 1)
  create_atoms CPU = 0.000 seconds
Created 50 atoms
  using lattice units in orthogonal box = (-50 -50 -1) to (50 50 1)
  create_atoms CPU = 0.000 seconds
Created 50 atoms
  using lattice units in orthogonal box = (-50 -50 -1) to (50 50 1)
  create_atoms CPU = 0.000 seconds
Created 50 atoms
  using lattice units in orthogonal box = (-50 -50 -1) to (50 50 1)
  create_atoms CPU = 0.000 seconds
Created 50 atoms
  using lattice units in orthogonal box = (-50 -50 -1) to (50 50 1)
  create_atoms CPU = 0.000 seconds
Created 50 atoms
  using lattice units in orthogonal box = (-50 -50 -1) to (50 50 1)
  create_atoms CPU = 0.000 seconds
Created 50 atoms
  using lattice units in orthogonal box = (-50 -50 -1) to (50 50 1)
  create_atoms CPU = 0.000 seconds
Created 50 atoms
  using lattice units in orthogonal box = (-50 -50 -1) to (50 50 1)
  create_atoms CPU = 0.000 seconds
Created 50 atoms
  using lattice units in orthogonal box = (-50 -50 -1) to (50 50 1)
  create_atoms CPU = 0.000 seconds
Created 50 atoms
  using lattice units in orthogonal box = (-50 -50 -1) to (50 50 1)
  create_atoms CPU = 0.000 seconds
Created 50 atoms
  using lattice units in orthogonal box = (-50 -50 -1) to (50 50 1)
  create_atoms CPU = 0.000 seconds
Created 50 atoms
  using lattice units in orthogonal box = (-50 -50 -1) to (50 50 1)
  create_atoms CPU = 0.000 seconds
Created 50 atoms
  using lattice units in orthogonal box = (-50 -50 -1) to (50 50 1)
  create_atoms CPU = 0.000 seconds
Created 50 atoms
  using lattice units in orthogonal box = (-50 -50 -1) to (50 50 1)
  create_atoms CPU = 0.000 seconds
Created 50 atoms
  using lattice units in orthogonal box = (-50 -50 -1) to (50 50 1)
  create_atoms CPU = 0.000 seconds
Created 50 atoms
  using lattice units in orthogonal box = (-50 -50 -1) to (50 50 1)
  create_atoms CPU = 0.000 seconds
Created 50 atoms
  using lattice units in orthogonal box = (-50 -50 -1) to (50 50 1)
  create_atoms CPU = 0.000 seconds
Created 50 atoms
  using lattice units in orthogonal box = (-50 -50 -1) to (50 50 1)
  create_atoms CPU = 0.000 seconds
Created 50 atoms
  using lattice units in orthogonal box = (-50 -50 -1) to (50 50 1)
  create_atoms CPU = 0.000 seconds
Created 50 atoms
  using lattice units in orthogonal box = (-50 -50 -1) to (50 50 1)
  create_atoms CPU = 0.000 seconds
Created 50 atoms
  using lattice units in orthogonal box = (-50 -50 -1) to (50 50 1)
  create_atoms CPU = 0.000 seconds
Created 50 atoms
  using lattice units in orthogonal box = (-50 -50 -1) to (50 50 1)
  create_atoms CPU = 0.000 seconds
Created 50 atoms
  using lattice units in orthogonal box = (-50 -50 -1) to (50 50 1)
  create_atoms CPU = 0.000 seconds
Created 50 atoms
  using lattice units in orthogonal box = (-50 -50 -1) to (50 50 1)
  create_atoms CPU = 0.000 seconds
Created 50 atoms
  using lattice units in orthogonal box = (-50 -50 -1) to (50 50 1)
  create_atoms CPU = 0.000 seconds
Created 50 atoms
  using lattice units in orthogonal box = (-50 -50 -1) to (50 50 1)
  create_atoms CPU = 0.000 seconds
Created 50 atoms
  using lattice units in orthogonal box = (-50 -50 -1) to (50 50 1)
  create_atoms CPU = 0.000 seconds
Created 50 atoms
  using lattice units in orthogonal box = (-50 -50 -1) to (50 50 1)
  create_atoms CPU = 0.000 seconds
Created 50 atoms
  using lattice units in orthogonal box = (-50 -50 -1) to (50 50 1)
  create_atoms CPU = 0.000 seconds
Created 50 atoms
  using lattice units in orthogonal box = (-50 -50 -1) to (50 50 1)
  create_atoms CPU = 0.000 seconds
Created 50 atoms
  using lattice units in orthogonal box = (-50 -50 -1) to (50 50 1)
  create_atoms CPU = 0.000 seconds
Created 50 atoms
  using lattice units in orthogonal box = (-50 -50 -1) to (50 50 1)
  create_atoms CPU = 0.000 seconds
Created 50 atoms
  using lattice units in orthogonal box = (-50 -50 -1) to (50 50 1)
  create_atoms CPU = 0.000 seconds
Created 50 atoms
  using lattice units in orthogonal box = (-50 -50 -1) to (50 50 1)
  create_atoms CPU = 0.000 seconds
Created 50 atoms
  using lattice units in orthogonal box = (-50 -50 -1) to (50 50 1)
  create_atoms CPU = 0.000 seconds
Created 50 atoms
  using lattice units in orthogonal box = (-50 -50 -1) to (50 50 1)
  create_atoms CPU = 0.000 seconds
Created 50 atoms
  using lattice units in orthogonal box = (-50 -50 -1) to (50 50 1)
  create_atoms CPU = 0.000 seconds
Created 50 atoms
  using lattice units in orthogonal box = (-50 -50 -1) to (50 50 1)
  create_atoms CPU = 0.000 seconds
Created 50 atoms
  using lattice units in orthogonal box = (-50 -50 -1) to (50 50 1)
  create_atoms CPU = 0.000 seconds
Created 50 atoms
  using lattice units in orthogonal box = (-50 -50 -1) to (50 50 1)
  create_atoms CPU = 0.000 seconds
Created 50 atoms
  using lattice units in orthogonal box = (-50 -50 -1) to (50 50 1)
  create_atoms CPU = 0.000 seconds
Created 50 atoms
  using lattice units in orthogonal box = (-50 -50 -1) to (50 50 1)
  create_atoms CPU = 0.000 seconds
Created 50 atoms
  using lattice units in orthogonal box = (-50 -50 -1) to (50 50 1)
  create_atoms CPU = 0.000 seconds
Created 50 atoms
  using lattice units in orthogonal box = (-50 -50 -1) to (50 50 1)
  create_atoms CPU = 0.000 seconds
Created 50 atoms
  using lattice units in orthogonal box = (-50 -50 -1) to (50 50 1)
  create_atoms CPU = 0.000 seconds
Created 50 atoms
  using lattice units in orthogonal box = (-50 -50 -1) to (50 50 1)
  create_atoms CPU = 0.000 seconds
Created 50 atoms
  using lattice units in orthogonal box = (-50 -50 -1) to (50 50 1)
  create_atoms CPU = 0.000 seconds
Created 50 atoms
  using lattice units in orthogonal box = (-50 -50 -1) to (50 50 1)
  create_atoms CPU = 0.000 seconds
Created 50 atoms
  using lattice units in orthogonal box = (-50 -50 -1) to (50 50 1)
  create_atoms CPU = 0.000 seconds
Created 50 atoms
  using lattice units in orthogonal box = (-50 -50 -1) to (50 50 1)
  create_atoms CPU = 0.000 seconds
Created 50 atoms
  using lattice units in orthogonal box = (-50 -50 -1) to (50 50 1)
  create_atoms CPU = 0.000 seconds
Created 50 atoms
  using lattice units in orthogonal box = (-50 -50 -1) to (50 50 1)
  create_atoms CPU = 0.000 seconds
Created 50 atoms
  using lattice units in orthogonal box = (-50 -50 -1) to (50 50 1)
  create_atoms CPU = 0.000 seconds
Created 50 atoms
  using lattice units in orthogonal box = (-50 -50 -1) to (50 50 1)
  create_atoms CPU = 0.000 seconds
Created 50 atoms
  using lattice units in orthogonal box = (-50 -50 -1) to (50 50 1)
  create_atoms CPU = 0.000 seconds
Created 50 atoms
  using lattice units in orthogonal box = (-50 -50 -1) to (50 50 1)
  create_atoms CPU = 0.000 seconds
Created 50 atoms
  using lattice units in orthogonal box = (-50 -50 -1) to (50 50 1)
  create_atoms CPU = 0.000 seconds
Created 50 atoms
  using lattice units in orthogonal box = (-50 -50 -1) to (50 50 1)
  create_atoms CPU = 0.000 seconds
Created 50 atoms
  using lattice units in orthogonal box = (-50 -50 -1) to (50 50 1)
  create_atoms CPU = 0.000 seconds
Created 50 atoms
  using lattice units in orthogonal box = (-50 -50 -1) to (50 50 1)
  create_atoms CPU = 0.000 seconds
Created 50 atoms
  using lattice units in orthogonal box = (-50 -50 -1) to (50 50 1)
  create_atoms CPU = 0.000 seconds
Created 50 atoms
  using lattice units in orthogonal box = (-50 -50 -1) to (50 50 1)
  create_atoms CPU = 0.000 seconds
Created 50 atoms
  using lattice units in orthogonal box = (-50 -50 -1) to (50 50 1)
  create_atoms CPU = 0.000 seconds
Created 50 atoms
  using lattice units in orthogonal box = (-50 -50 -1) to (50 50 1)
  create_atoms CPU = 0.000 seconds
Created 50 atoms
  using lattice units in orthogonal box = (-50 -50 -1) to (50 50 1)
  create_atoms CPU = 0.000 seconds
Created 50 atoms
  using lattice units in orthogonal box = (-50 -50 -1) to (50 50 1)
  create_atoms CPU = 0.000 seconds
Created 50 atoms
  using lattice units in orthogonal box = (-50 -50 -1) to (50 50 1)
  create_atoms CPU = 0.000 seconds
Created 50 atoms
  using lattice units in orthogonal box = (-50 -50 -1) to (50 50 1)
  create_atoms CPU = 0.000 seconds
Created 50 atoms
  using lattice units in orthogonal box = (-50 -50 -1) to (50 50 1)
  create_atoms CPU = 0.000 seconds
Created 50 atoms
  using lattice units in orthogonal box = (-50 -50 -1) to (50 50 1)
  create_atoms CPU = 0.000 seconds
Created 50 atoms
  using lattice units in orthogonal box = (-50 -50 -1) to (50 50 1)
  create_atoms CPU = 0.000 seconds
Created 50 atoms
  using lattice units in orthogonal box = (-50 -50 -1) to (50 50 1)
  create_atoms CPU = 0.000 seconds
Created 50 atoms
  using lattice units in orthogonal box = (-50 -50 -1) to (50 50 1)
  create_atoms CPU = 0.000 seconds
Created 50 atoms
  using lattice units in orthogonal box = (-50 -50 -1) to (50 50 1)
  create_atoms CPU = 0.000 seconds
Created 50 atoms
  using lattice units in orthogonal box = (-50 -50 -1) to (50 50 1)
  create_atoms CPU = 0.000 seconds
Created 50 atoms
  using lattice units in orthogonal box = (-50 -50 -1) to (50 50 1)
  create_atoms CPU = 0.000 seconds
Created 50 atoms
  using lattice units in orthogonal box = (-50 -50 -1) to (50 50 1)
  create_atoms CPU = 0.000 seconds
Created 50 atoms
  using lattice units in orthogonal box = (-50 -50 -1) to (50 50 1)
  create_atoms CPU = 0.000 seconds
Created 50 atoms
  using lattice units in orthogonal box = (-50 -50 -1) to (50 50 1)
  create_atoms CPU = 0.000 seconds
Created 50 atoms
  using lattice units in orthogonal box = (-50 -50 -1) to (50 50 1)
  create_atoms CPU = 0.000 seconds
Created 50 atoms
  using lattice units in orthogonal box = (-50 -50 -1) to (50 50 1)
  create_atoms CPU = 0.000 seconds
Created 50 atoms
  using lattice units in orthogonal box = (-50 -50 -1) to (50 50 1)
  create_atoms CPU = 0.000 seconds
Created 50 atoms
  using lattice units in orthogonal box = (-50 -50 -1) to (50 50 1)
  create_atoms CPU = 0.000 seconds
Created 50 atoms
  using lattice units in orthogonal box = (-50 -50 -1) to (50 50 1)
  create_atoms CPU = 0.000 seconds
Created 50 atoms
  using lattice units in orthogonal box = (-50 -50 -1) to (50 50 1)
  create_atoms CPU = 0.000 seconds
Created 50 atoms
  using lattice units in orthogonal box = (-50 -50 -1) to (50 50 1)
  create_atoms CPU = 0.000 seconds
Created 50 atoms
  using lattice units in orthogonal box = (-50 -50 -1) to (50 50 1)
  create_atoms CPU = 0.000 seconds
Created 50 atoms
  using lattice units in orthogonal box = (-50 -50 -1) to (50 50 1)
  create_atoms CPU = 0.000 seconds
Created 50 atoms
  using lattice units in orthogonal box = (-50 -50 -1) to (50 50 1)
  create_atoms CPU = 0.000 seconds
Created 50 atoms
  using lattice units in orthogonal box = (-50 -50 -1) to (50 50 1)
  create_atoms CPU = 0.000 seconds
Created 50 atoms
  using lattice units in orthogonal box = (-50 -50 -1) to (50 50 1)
  create_atoms CPU = 0.000 seconds
Created 50 atoms
  using lattice units in orthogonal box = (-50 -50 -1) to (50 50 1)
  create_atoms CPU = 0.000 seconds
Created 50 atoms
  using lattice units in orthogonal box = (-50 -50 -1) to (50 50 1)
  create_atoms CPU = 0.000 seconds
Created 50 atoms
  using lattice units in orthogonal box = (-50 -50 -1) to (50 50 1)
  create_atoms CPU = 0.000 seconds
Created 50 atoms
  using lattice units in orthogonal box = (-50 -50 -1) to (50 50 1)
  create_atoms CPU = 0.000 seconds
Created 50 atoms
  using lattice units in orthogonal box = (-50 -50 -1) to (50 50 1)
  create_atoms CPU = 0.000 seconds
Created 50 atoms
  using lattice units in orthogonal box = (-50 -50 -1) to (50 50 1)
  create_atoms CPU = 0.000 seconds
Created 50 atoms
  using lattice units in orthogonal box = (-50 -50 -1) to (50 50 1)
  create_atoms CPU = 0.000 seconds
Created 50 atoms
  using lattice units in orthogonal box = (-50 -50 -1) to (50 50 1)
  create_atoms CPU = 0.000 seconds
Created 50 atoms
  using lattice units in orthogonal box = (-50 -50 -1) to (50 50 1)
  create_atoms CPU = 0.000 seconds
Created 50 atoms
  using lattice units in orthogonal box = (-50 -50 -1) to (50 50 1)
  create_atoms CPU = 0.000 seconds
Created 50 atoms
  using lattice units in orthogonal box = (-50 -50 -1) to (50 50 1)
  create_atoms CPU = 0.000 seconds
Created 50 atoms
  using lattice units in orthogonal box = (-50 -50 -1) to (50 50 1)
  create_atoms CPU = 0.000 seconds
Created 50 atoms
  using lattice units in orthogonal box = (-50 -50 -1) to (50 50 1)
  create_atoms CPU = 0.000 seconds
Created 50 atoms
  using lattice units in orthogonal box = (-50 -50 -1) to (50 50 1)
  create_atoms CPU = 0.000 seconds
Created 50 atoms
  using lattice units in orthogonal box = (-50 -50 -1) to (50 50 1)
  create_atoms CPU = 0.000 seconds
Created 50 atoms
  using lattice units in orthogonal box = (-50 -50 -1) to (50 50 1)
  create_atoms CPU = 0.000 seconds
Created 50 atoms
  using lattice units in orthogonal box = (-50 -50 -1) to (50 50 1)
  create_atoms CPU = 0.000 seconds
Created 50 atoms
  using lattice units in orthogonal box = (-50 -50 -1) to (50 50 1)
  create_atoms CPU = 0.000 seconds
Created 50 atoms
  using lattice units in orthogonal box = (-50 -50 -1) to (50 50 1)
  create_atoms CPU = 0.000 seconds
Created 50 atoms
  using lattice units in orthogonal box = (-50 -50 -1) to (50 50 1)
  create_atoms CPU = 0.000 seconds
Created 50 atoms
  using lattice units in orthogonal box = (-50 -50 -1) to (50 50 1)
  create_atoms CPU = 0.000 seconds
Created 50 atoms
  using lattice units in orthogonal box = (-50 -50 -1) to (50 50 1)
  create_atoms CPU = 0.000 seconds
Created 50 atoms
  using lattice units in orthogonal box = (-50 -50 -1) to (50 50 1)
  create_atoms CPU = 0.000 seconds
Created 50 atoms
  using lattice units in orthogonal box = (-50 -50 -1) to (50 50 1)
  create_atoms CPU = 0.000 seconds
Created 50 atoms
  using lattice units in orthogonal box = (-50 -50 -1) to (50 50 1)
  create_atoms CPU = 0.000 seconds
Created 50 atoms
  using lattice units in orthogonal box = (-50 -50 -1) to (50 50 1)
  create_atoms CPU = 0.000 seconds
Created 50 atoms
  using lattice units in orthogonal box = (-50 -50 -1) to (50 50 1)
  create_atoms CPU = 0.000 seconds
Created 50 atoms
  using lattice units in orthogonal box = (-50 -50 -1) to (50 50 1)
  create_atoms CPU = 0.000 seconds
Created 50 atoms
  using lattice units in orthogonal box = (-50 -50 -1) to (50 50 1)
  create_atoms CPU = 0.000 seconds
Created 50 atoms
  using lattice units in orthogonal box = (-50 -50 -1) to (50 50 1)
  create_atoms CPU = 0.000 seconds
Created 50 atoms
  using lattice units in orthogonal box = (-50 -50 -1) to (50 50 1)
  create_atoms CPU = 0.000 seconds
Created 50 atoms
  using lattice units in orthogonal box = (-50 -50 -1) to (50 50 1)
  create_atoms CPU = 0.000 seconds
Created 50 atoms
  using lattice units in orthogonal box = (-50 -50 -1) to (50 50 1)
  create_atoms CPU = 0.000 seconds
Created 50 atoms
  using lattice units in orthogonal box = (-50 -50 -1) to (50 50 1)
  create_atoms CPU = 0.000 seconds
Created 50 atoms
  using lattice units in orthogonal box = (-50 -50 -1) to (50 50 1)
  create_atoms CPU = 0.000 seconds
Created 50 atoms
  using lattice units in orthogonal box = (-50 -50 -1) to (50 50 1)
  create_atoms CPU = 0.000 seconds
Created 50 atoms
  using lattice units in orthogonal box = (-50 -50 -1) to (50 50 1)
  create_atoms CPU = 0.000 seconds
Created 50 atoms
  using lattice units in orthogonal box = (-50 -50 -1) to (50 50 1)
  create_atoms CPU = 0.000 seconds
Created 50 atoms
  using lattice units in orthogonal box = (-50 -50 -1) to (50 50 1)
  create_atoms CPU = 0.000 seconds
Created 50 atoms
  using lattice units in orthogonal box = (-50 -50 -1) to (50 50 1)
  create_atoms CPU = 0.000 seconds
Created 50 atoms
  using lattice units in orthogonal box = (-50 -50 -1) to (50 50 1)
  create_atoms CPU = 0.000 seconds
Created 50 atoms
  using lattice units in orthogonal box = (-50 -50 -1) to (50 50 1)
  create_atoms CPU = 0.000 seconds
Created 50 atoms
  using lattice units in orthogonal box = (-50 -50 -1) to (50 50 1)
  create_atoms CPU = 0.000 seconds
Created 50 atoms
  using lattice units in orthogonal box = (-50 -50 -1) to (50 50 1)
  create_atoms CPU = 0.000 seconds
Created 50 atoms
  using lattice units in orthogonal box = (-50 -50 -1) to (50 50 1)
  create_atoms CPU = 0.000 seconds
Created 50 atoms
  using lattice units in orthogonal box = (-50 -50 -1) to (50 50 1)
  create_atoms CPU = 0.001 seconds
Created 50 atoms
  using lattice units in orthogonal box = (-50 -50 -1) to (50 50 1)
  create_atoms CPU = 0.000 seconds
Created 50 atoms
  using lattice units in orthogonal box = (-50 -50 -1) to (50 50 1)
  create_atoms CPU = 0.000 seconds
Created 50 atoms
  using lattice units in orthogonal box = (-50 -50 -1) to (50 50 1)
  create_atoms CPU = 0.000 seconds
Created 50 atoms
  using lattice units in orthogonal box = (-50 -50 -1) to (50 50 1)
  create_atoms CPU = 0.000 seconds
Created 50 atoms
  using lattice units in orthogonal box = (-50 -50 -1) to (50 50 1)
  create_atoms CPU = 0.000 seconds
Created 50 atoms
  using lattice units in orthogonal box = (-50 -50 -1) to (50 50 1)
  create_atoms CPU = 0.000 seconds
Created 50 atoms
  using lattice units in orthogonal box = (-50 -50 -1) to (50 50 1)
  create_atoms CPU = 0.000 seconds
Created 50 atoms
  using lattice units in orthogonal box = (-50 -50 -1) to (50 50 1)
  create_atoms CPU = 0.000 seconds
Created 50 atoms
  using lattice units in orthogonal box = (-50 -50 -1) to (50 50 1)
  create_atoms CPU = 0.000 seconds
Created 50 atoms
  using lattice units in orthogonal box = (-50 -50 -1) to (50 50 1)
  create_atoms CPU = 0.000 seconds
Created 50 atoms
  using lattice units in orthogonal box = (-50 -50 -1) to (50 50 1)
  create_atoms CPU = 0.000 seconds
Created 50 atoms
  using lattice units in orthogonal box = (-50 -50 -1) to (50 50 1)
  create_atoms CPU = 0.000 seconds
Created 50 atoms
  using lattice units in orthogonal box = (-50 -50 -1) to (50 50 1)
  create_atoms CPU = 0.000 seconds
Created 50 atoms
  using lattice units in orthogonal box = (-50 -50 -1) to (50 50 1)
  create_atoms CPU = 0.000 seconds
Created 50 atoms
  using lattice units in orthogonal box = (-50 -50 -1) to (50 50 1)
  create_atoms CPU = 0.000 seconds
Created 50 atoms
  using lattice units in orthogonal box = (-50 -50 -1) to (50 50 1)
  create_atoms CPU = 0.000 seconds
Created 50 atoms
  using lattice units in orthogonal box = (-50 -50 -1) to (50 50 1)
  create_atoms CPU = 0.000 seconds
Created 50 atoms
  using lattice units in orthogonal box = (-50 -50 -1) to (50 50 1)
  create_atoms CPU = 0.000 seconds
Created 50 atoms
  using lattice units in orthogonal box = (-50 -50 -1) to (50 50 1)
  create_atoms CPU = 0.000 seconds
Created 50 atoms
  using lattice units in orthogonal box = (-50 -50 -1) to (50 50 1)
  create_atoms CPU = 0.000 seconds
Created 50 atoms
  using lattice units in orthogonal box = (-50 -50 -1) to (50 50 1)
  create_atoms CPU = 0.000 seconds
Created 50 atoms
  using lattice units in orthogonal box = (-50 -50 -1) to (50 50 1)
  create_atoms CPU = 0.000 seconds
Created 50 atoms
  using lattice units in orthogonal box = (-50 -50 -1) to (50 50 1)
  create_atoms CPU = 0.000 seconds
Created 50 atoms
  using lattice units in orthogonal box = (-50 -50 -1) to (50 50 1)
  create_atoms CPU = 0.000 seconds
Created 50 atoms
  using lattice units in orthogonal box = (-50 -50 -1) to (50 50 1)
  create_atoms CPU = 0.000 seconds
Created 50 atoms
  using lattice units in orthogonal box = (-50 -50 -1) to (50 50 1)
  create_atoms CPU = 0.000 seconds
Created 50 atoms
  using lattice units in orthogonal box = (-50 -50 -1) to (50 50 1)
  create_atoms CPU = 0.000 seconds
Created 50 atoms
  using lattice units in orthogonal box = (-50 -50 -1) to (50 50 1)
  create_atoms CPU = 0.000 seconds
Created 50 atoms
  using lattice units in orthogonal box = (-50 -50 -1) to (50 50 1)
  create_atoms CPU = 0.000 seconds
Created 50 atoms
  using lattice units in orthogonal box = (-50 -50 -1) to (50 50 1)
  create_atoms CPU = 0.000 seconds
Created 50 atoms
  using lattice units in orthogonal box = (-50 -50 -1) to (50 50 1)
  create_atoms CPU = 0.000 seconds
Created 50 atoms
  using lattice units in orthogonal box = (-50 -50 -1) to (50 50 1)
  create_atoms CPU = 0.000 seconds
Created 50 atoms
  using lattice units in orthogonal box = (-50 -50 -1) to (50 50 1)
  create_atoms CPU = 0.000 seconds
Created 50 atoms
  using lattice units in orthogonal box = (-50 -50 -1) to (50 50 1)
  create_atoms CPU = 0.000 seconds
Created 50 atoms
  using lattice units in orthogonal box = (-50 -50 -1) to (50 50 1)
  create_atoms CPU = 0.000 seconds
Created 50 atoms
  using lattice units in orthogonal box = (-50 -50 -1) to (50 50 1)
  create_atoms CPU = 0.000 seconds
Created 50 atoms
  using lattice units in orthogonal box = (-50 -50 -1) to (50 50 1)
  create_atoms CPU = 0.000 seconds
Created 50 atoms
  using lattice units in orthogonal box = (-50 -50 -1) to (50 50 1)
  create_atoms CPU = 0.000 seconds
Created 50 atoms
  using lattice units in orthogonal box = (-50 -50 -1) to (50 50 1)
  create_atoms CPU = 0.000 seconds
Created 50 atoms
  using lattice units in orthogonal box = (-50 -50 -1) to (50 50 1)
  create_atoms CPU = 0.000 seconds
Created 50 atoms
  using lattice units in orthogonal box = (-50 -50 -1) to (50 50 1)
  create_atoms CPU = 0.000 seconds
Created 50 atoms
  using lattice units in orthogonal box = (-50 -50 -1) to (50 50 1)
  create_atoms CPU = 0.000 seconds
Created 50 atoms
  using lattice units in orthogonal box = (-50 -50 -1) to (50 50 1)
  create_atoms CPU = 0.000 seconds
Created 50 atoms
  using lattice units in orthogonal box = (-50 -50 -1) to (50 50 1)
  create_atoms CPU = 0.000 seconds
Created 50 atoms
  using lattice units in orthogonal box = (-50 -50 -1) to (50 50 1)
  create_atoms CPU = 0.000 seconds
Created 50 atoms
  using lattice units in orthogonal box = (-50 -50 -1) to (50 50 1)
  create_atoms CPU = 0.000 seconds
Created 50 atoms
  using lattice units in orthogonal box = (-50 -50 -1) to (50 50 1)
  create_atoms CPU = 0.000 seconds
Created 50 atoms
  using lattice units in orthogonal box = (-50 -50 -1) to (50 50 1)
  create_atoms CPU = 0.000 seconds
Created 50 atoms
  using lattice units in orthogonal box = (-50 -50 -1) to (50 50 1)
  create_atoms CPU = 0.000 seconds
Created 50 atoms
  using lattice units in orthogonal box = (-50 -50 -1) to (50 50 1)
  create_atoms CPU = 0.000 seconds
Created 50 atoms
  using lattice units in orthogonal box = (-50 -50 -1) to (50 50 1)
  create_atoms CPU = 0.000 seconds
Created 50 atoms
  using lattice units in orthogonal box = (-50 -50 -1) to (50 50 1)
  create_atoms CPU = 0.000 seconds
Created 50 atoms
  using lattice units in orthogonal box = (-50 -50 -1) to (50 50 1)
  create_atoms CPU = 0.000 seconds
Created 50 atoms
  using lattice units in orthogonal box = (-50 -50 -1) to (50 50 1)
  create_atoms CPU = 0.000 seconds
Created 50 atoms
  using lattice units in orthogonal box = (-50 -50 -1) to (50 50 1)
  create_atoms CPU = 0.000 seconds
Created 50 atoms
  using lattice units in orthogonal box = (-50 -50 -1) to (50 50 1)
  create_atoms CPU = 0.000 seconds
Created 50 atoms
  using lattice units in orthogonal box = (-50 -50 -1) to (50 50 1)
  create_atoms CPU = 0.000 seconds
Created 50 atoms
  using lattice units in orthogonal box = (-50 -50 -1) to (50 50 1)
  create_atoms CPU = 0.000 seconds
Created 50 atoms
  using lattice units in orthogonal box = (-50 -50 -1) to (50 50 1)
  create_atoms CPU = 0.000 seconds
Created 50 atoms
  using lattice units in orthogonal box = (-50 -50 -1) to (50 50 1)
  create_atoms CPU = 0.000 seconds
Created 50 atoms
  using lattice units in orthogonal box = (-50 -50 -1) to (50 50 1)
  create_atoms CPU = 0.000 seconds
Created 50 atoms
  using lattice units in orthogonal box = (-50 -50 -1) to (50 50 1)
  create_atoms CPU = 0.000 seconds
Created 50 atoms
  using lattice units in orthogonal box = (-50 -50 -1) to (50 50 1)
  create_atoms CPU = 0.000 seconds
Created 50 atoms
  using lattice units in orthogonal box = (-50 -50 -1) to (50 50 1)
  create_atoms CPU = 0.000 seconds
Created 50 atoms
  using lattice units in orthogonal box = (-50 -50 -1) to (50 50 1)
  create_atoms CPU = 0.000 seconds
Created 50 atoms
  using lattice units in orthogonal box = (-50 -50 -1) to (50 50 1)
  create_atoms CPU = 0.000 seconds
Created 50 atoms
  using lattice units in orthogonal box = (-50 -50 -1) to (50 50 1)
  create_atoms CPU = 0.000 seconds
Created 50 atoms
  using lattice units in orthogonal box = (-50 -50 -1) to (50 50 1)
  create_atoms CPU = 0.000 seconds
Created 50 atoms
  using lattice units in orthogonal box = (-50 -50 -1) to (50 50 1)
  create_atoms CPU = 0.000 seconds
Created 50 atoms
  using lattice units in orthogonal box = (-50 -50 -1) to (50 50 1)
  create_atoms CPU = 0.000 seconds
Created 50 atoms
  using lattice units in orthogonal box = (-50 -50 -1) to (50 50 1)
  create_atoms CPU = 0.000 seconds
Created 50 atoms
  using lattice units in orthogonal box = (-50 -50 -1) to (50 50 1)
  create_atoms CPU = 0.000 seconds
Created 50 atoms
  using lattice units in orthogonal box = (-50 -50 -1) to (50 50 1)
  create_atoms CPU = 0.001 seconds
Created 50 atoms
  using lattice units in orthogonal box = (-50 -50 -1) to (50 50 1)
  create_atoms CPU = 0.000 seconds
Created 50 atoms
  using lattice units in orthogonal box = (-50 -50 -1) to (50 50 1)
  create_atoms CPU = 0.000 seconds
Created 50 atoms
  using lattice units in orthogonal box = (-50 -50 -1) to (50 50 1)
  create_atoms CPU = 0.000 seconds
Created 50 atoms
  using lattice units in orthogonal box = (-50 -50 -1) to (50 50 1)
  create_atoms CPU = 0.000 seconds
Created 50 atoms
  using lattice units in orthogonal box = (-50 -50 -1) to (50 50 1)
  create_atoms CPU = 0.000 seconds
Created 50 atoms
  using lattice units in orthogonal box = (-50 -50 -1) to (50 50 1)
  create_atoms CPU = 0.000 seconds
Created 50 atoms
  using lattice units in orthogonal box = (-50 -50 -1) to (50 50 1)
  create_atoms CPU = 0.000 seconds
Created 50 atoms
  using lattice units in orthogonal box = (-50 -50 -1) to (50 50 1)
  create_atoms CPU = 0.000 seconds
Created 50 atoms
  using lattice units in orthogonal box = (-50 -50 -1) to (50 50 1)
  create_atoms CPU = 0.000 seconds
Created 50 atoms
  using lattice units in orthogonal box = (-50 -50 -1) to (50 50 1)
  create_atoms CPU = 0.000 seconds
Created 50 atoms
  using lattice units in orthogonal box = (-50 -50 -1) to (50 50 1)
  create_atoms CPU = 0.000 seconds
Created 50 atoms
  using lattice units in orthogonal box = (-50 -50 -1) to (50 50 1)
  create_atoms CPU = 0.000 seconds
Created 50 atoms
  using lattice units in orthogonal box = (-50 -50 -1) to (50 50 1)
  create_atoms CPU = 0.000 seconds
Created 50 atoms
  using lattice units in orthogonal box = (-50 -50 -1) to (50 50 1)
  create_atoms CPU = 0.000 seconds
Created 50 atoms
  using lattice units in orthogonal box = (-50 -50 -1) to (50 50 1)
  create_atoms CPU = 0.000 seconds
Created 50 atoms
  using lattice units in orthogonal box = (-50 -50 -1) to (50 50 1)
  create_atoms CPU = 0.000 seconds
Created 50 atoms
  using lattice units in orthogonal box = (-50 -50 -1) to (50 50 1)
  create_atoms CPU = 0.000 seconds
Created 50 atoms
  using lattice units in orthogonal box = (-50 -50 -1) to (50 50 1)
  create_atoms CPU = 0.000 seconds
Created 50 atoms
  using lattice units in orthogonal box = (-50 -50 -1) to (50 50 1)
  create_atoms CPU = 0.000 seconds
Created 50 atoms
  using lattice units in orthogonal box = (-50 -50 -1) to (50 50 1)
  create_atoms CPU = 0.000 seconds
Created 50 atoms
  using lattice units in orthogonal box = (-50 -50 -1) to (50 50 1)
  create_atoms CPU = 0.000 seconds
Created 50 atoms
  using lattice units in orthogonal box = (-50 -50 -1) to (50 50 1)
  create_atoms CPU = 0.000 seconds
Created 50 atoms
  using lattice units in orthogonal box = (-50 -50 -1) to (50 50 1)
  create_atoms CPU = 0.000 seconds
Created 50 atoms
  using lattice units in orthogonal box = (-50 -50 -1) to (50 50 1)
  create_atoms CPU = 0.000 seconds
Created 50 atoms
  using lattice units in orthogonal box = (-50 -50 -1) to (50 50 1)
  create_atoms CPU = 0.000 seconds
Created 50 atoms
  using lattice units in orthogonal box = (-50 -50 -1) to (50 50 1)
  create_atoms CPU = 0.000 seconds
Created 50 atoms
  using lattice units in orthogonal box = (-50 -50 -1) to (50 50 1)
  create_atoms CPU = 0.000 seconds
Created 50 atoms
  using lattice units in orthogonal box = (-50 -50 -1) to (50 50 1)
  create_atoms CPU = 0.000 seconds
Created 50 atoms
  using lattice units in orthogonal box = (-50 -50 -1) to (50 50 1)
  create_atoms CPU = 0.000 seconds
Created 50 atoms
  using lattice units in orthogonal box = (-50 -50 -1) to (50 50 1)
  create_atoms CPU = 0.000 seconds
Created 50 atoms
  using lattice units in orthogonal box = (-50 -50 -1) to (50 50 1)
  create_atoms CPU = 0.000 seconds
Created 50 atoms
  using lattice units in orthogonal box = (-50 -50 -1) to (50 50 1)
  create_atoms CPU = 0.000 seconds
Created 50 atoms
  using lattice units in orthogonal box = (-50 -50 -1) to (50 50 1)
  create_atoms CPU = 0.000 seconds
Created 50 atoms
  using lattice units in orthogonal box = (-50 -50 -1) to (50 50 1)
  create_atoms CPU = 0.000 seconds
Created 50 atoms
  using lattice units in orthogonal box = (-50 -50 -1) to (50 50 1)
  create_atoms CPU = 0.000 seconds
Created 50 atoms
  using lattice units in orthogonal box = (-50 -50 -1) to (50 50 1)
  create_atoms CPU = 0.000 seconds
Created 50 atoms
  using lattice units in orthogonal box = (-50 -50 -1) to (50 50 1)
  create_atoms CPU = 0.000 seconds
Created 50 atoms
  using lattice units in orthogonal box = (-50 -50 -1) to (50 50 1)
  create_atoms CPU = 0.000 seconds
Created 50 atoms
  using lattice units in orthogonal box = (-50 -50 -1) to (50 50 1)
  create_atoms CPU = 0.000 seconds
Created 50 atoms
  using lattice units in orthogonal box = (-50 -50 -1) to (50 50 1)
  create_atoms CPU = 0.000 seconds
Created 50 atoms
  using lattice units in orthogonal box = (-50 -50 -1) to (50 50 1)
  create_atoms CPU = 0.000 seconds
Created 50 atoms
  using lattice units in orthogonal box = (-50 -50 -1) to (50 50 1)
  create_atoms CPU = 0.000 seconds
Created 50 atoms
  using lattice units in orthogonal box = (-50 -50 -1) to (50 50 1)
  create_atoms CPU = 0.000 seconds
Created 50 atoms
  using lattice units in orthogonal box = (-50 -50 -1) to (50 50 1)
  create_atoms CPU = 0.000 seconds
Created 50 atoms
  using lattice units in orthogonal box = (-50 -50 -1) to (50 50 1)
  create_atoms CPU = 0.000 seconds
Created 50 atoms
  using lattice units in orthogonal box = (-50 -50 -1) to (50 50 1)
  create_atoms CPU = 0.000 seconds
Created 50 atoms
  using lattice units in orthogonal box = (-50 -50 -1) to (50 50 1)
  create_atoms CPU = 0.000 seconds
Created 50 atoms
  using lattice units in orthogonal box = (-50 -50 -1) to (50 50 1)
  create_atoms CPU = 0.000 seconds
Created 50 atoms
  using lattice units in orthogonal box = (-50 -50 -1) to (50 50 1)
  create_atoms CPU = 0.000 seconds
Created 50 atoms
  using lattice units in orthogonal box = (-50 -50 -1) to (50 50 1)
  create_atoms CPU = 0.000 seconds
Created 50 atoms
  using lattice units in orthogonal box = (-50 -50 -1) to (50 50 1)
  create_atoms CPU = 0.000 seconds
Created 50 atoms
  using lattice units in orthogonal box = (-50 -50 -1) to (50 50 1)
  create_atoms CPU = 0.000 seconds
Created 50 atoms
  using lattice units in orthogonal box = (-50 -50 -1) to (50 50 1)
  create_atoms CPU = 0.000 seconds
Created 50 atoms
  using lattice units in orthogonal box = (-50 -50 -1) to (50 50 1)
  create_atoms CPU = 0.000 seconds
Created 50 atoms
  using lattice units in orthogonal box = (-50 -50 -1) to (50 50 1)
  create_atoms CPU = 0.000 seconds
Created 50 atoms
  using lattice units in orthogonal box = (-50 -50 -1) to (50 50 1)
  create_atoms CPU = 0.000 seconds
Created 50 atoms
  using lattice units in orthogonal box = (-50 -50 -1) to (50 50 1)
  create_atoms CPU = 0.000 seconds
Created 50 atoms
  using lattice units in orthogonal box = (-50 -50 -1) to (50 50 1)
  create_atoms CPU = 0.000 seconds
Created 50 atoms
  using lattice units in orthogonal box = (-50 -50 -1) to (50 50 1)
  create_atoms CPU = 0.000 seconds
Created 50 atoms
  using lattice units in orthogonal box = (-50 -50 -1) to (50 50 1)
  create_atoms CPU = 0.000 seconds
Created 50 atoms
  using lattice units in orthogonal box = (-50 -50 -1) to (50 50 1)
  create_atoms CPU = 0.000 seconds
Created 50 atoms
  using lattice units in orthogonal box = (-50 -50 -1) to (50 50 1)
  create_atoms CPU = 0.000 seconds
Created 50 atoms
  using lattice units in orthogonal box = (-50 -50 -1) to (50 50 1)
  create_atoms CPU = 0.000 seconds
Created 50 atoms
  using lattice units in orthogonal box = (-50 -50 -1) to (50 50 1)
  create_atoms CPU = 0.000 seconds
Created 50 atoms
  using lattice units in orthogonal box = (-50 -50 -1) to (50 50 1)
  create_atoms CPU = 0.000 seconds
Created 50 atoms
  using lattice units in orthogonal box = (-50 -50 -1) to (50 50 1)
  create_atoms CPU = 0.000 seconds
Created 50 atoms
  using lattice units in orthogonal box = (-50 -50 -1) to (50 50 1)
  create_atoms CPU = 0.000 seconds
Created 50 atoms
  using lattice units in orthogonal box = (-50 -50 -1) to (50 50 1)
  create_atoms CPU = 0.000 seconds
Created 50 atoms
  using lattice units in orthogonal box = (-50 -50 -1) to (50 50 1)
  create_atoms CPU = 0.000 seconds
Created 50 atoms
  using lattice units in orthogonal box = (-50 -50 -1) to (50 50 1)
  create_atoms CPU = 0.000 seconds
Created 50 atoms
  using lattice units in orthogonal box = (-50 -50 -1) to (50 50 1)
  create_atoms CPU = 0.000 seconds
Created 50 atoms
  using lattice units in orthogonal box = (-50 -50 -1) to (50 50 1)
  create_atoms CPU = 0.000 seconds
Created 50 atoms
  using lattice units in orthogonal box = (-50 -50 -1) to (50 50 1)
  create_atoms CPU = 0.000 seconds
Created 50 atoms
  using lattice units in orthogonal box = (-50 -50 -1) to (50 50 1)
  create_atoms CPU = 0.000 seconds
Created 50 atoms
  using lattice units in orthogonal box = (-50 -50 -1) to (50 50 1)
  create_atoms CPU = 0.000 seconds
Created 50 atoms
  using lattice units in orthogonal box = (-50 -50 -1) to (50 50 1)
  create_atoms CPU = 0.000 seconds
Created 50 atoms
  using lattice units in orthogonal box = (-50 -50 -1) to (50 50 1)
  create_atoms CPU = 0.000 seconds
Created 50 atoms
  using lattice units in orthogonal box = (-50 -50 -1) to (50 50 1)
  create_atoms CPU = 0.000 seconds
Created 50 atoms
  using lattice units in orthogonal box = (-50 -50 -1) to (50 50 1)
  create_atoms CPU = 0.000 seconds
Created 50 atoms
  using lattice units in orthogonal box = (-50 -50 -1) to (50 50 1)
  create_atoms CPU = 0.000 seconds
Created 50 atoms
  using lattice units in orthogonal box = (-50 -50 -1) to (50 50 1)
  create_atoms CPU = 0.000 seconds
Created 50 atoms
  using lattice units in orthogonal box = (-50 -50 -1) to (50 50 1)
  create_atoms CPU = 0.000 seconds
Created 50 atoms
  using lattice units in orthogonal box = (-50 -50 -1) to (50 50 1)
  create_atoms CPU = 0.000 seconds
Created 50 atoms
  using lattice units in orthogonal box = (-50 -50 -1) to (50 50 1)
  create_atoms CPU = 0.000 seconds
Created 50 atoms
  using lattice units in orthogonal box = (-50 -50 -1) to (50 50 1)
  create_atoms CPU = 0.000 seconds
Created 50 atoms
  using lattice units in orthogonal box = (-50 -50 -1) to (50 50 1)
  create_atoms CPU = 0.000 seconds
Created 50 atoms
  using lattice units in orthogonal box = (-50 -50 -1) to (50 50 1)
  create_atoms CPU = 0.000 seconds
Created 50 atoms
  using lattice units in orthogonal box = (-50 -50 -1) to (50 50 1)
  create_atoms CPU = 0.000 seconds
Created 50 atoms
  using lattice units in orthogonal box = (-50 -50 -1) to (50 50 1)
  create_atoms CPU = 0.000 seconds
Created 50 atoms
  using lattice units in orthogonal box = (-50 -50 -1) to (50 50 1)
  create_atoms CPU = 0.000 seconds
Created 50 atoms
  using lattice units in orthogonal box = (-50 -50 -1) to (50 50 1)
  create_atoms CPU = 0.000 seconds
Created 50 atoms
  using lattice units in orthogonal box = (-50 -50 -1) to (50 50 1)
  create_atoms CPU = 0.000 seconds
Created 50 atoms
  using lattice units in orthogonal box = (-50 -50 -1) to (50 50 1)
  create_atoms CPU = 0.000 seconds
Created 50 atoms
  using lattice units in orthogonal box = (-50 -50 -1) to (50 50 1)
  create_atoms CPU = 0.000 seconds
Created 50 atoms
  using lattice units in orthogonal box = (-50 -50 -1) to (50 50 1)
  create_atoms CPU = 0.000 seconds
Created 50 atoms
  using lattice units in orthogonal box = (-50 -50 -1) to (50 50 1)
  create_atoms CPU = 0.000 seconds
Created 50 atoms
  using lattice units in orthogonal box = (-50 -50 -1) to (50 50 1)
  create_atoms CPU = 0.000 seconds
Created 50 atoms
  using lattice units in orthogonal box = (-50 -50 -1) to (50 50 1)
  create_atoms CPU = 0.000 seconds
Created 50 atoms
  using lattice units in orthogonal box = (-50 -50 -1) to (50 50 1)
  create_atoms CPU = 0.000 seconds
Created 50 atoms
  using lattice units in orthogonal box = (-50 -50 -1) to (50 50 1)
  create_atoms CPU = 0.000 seconds
Created 50 atoms
  using lattice units in orthogonal box = (-50 -50 -1) to (50 50 1)
  create_atoms CPU = 0.000 seconds
Created 50 atoms
  using lattice units in orthogonal box = (-50 -50 -1) to (50 50 1)
  create_atoms CPU = 0.000 seconds
Created 50 atoms
  using lattice units in orthogonal box = (-50 -50 -1) to (50 50 1)
  create_atoms CPU = 0.000 seconds
Created 50 atoms
  using lattice units in orthogonal box = (-50 -50 -1) to (50 50 1)
  create_atoms CPU = 0.000 seconds
Created 50 atoms
  using lattice units in orthogonal box = (-50 -50 -1) to (50 50 1)
  create_atoms CPU = 0.000 seconds
Created 50 atoms
  using lattice units in orthogonal box = (-50 -50 -1) to (50 50 1)
  create_atoms CPU = 0.000 seconds
Created 50 atoms
  using lattice units in orthogonal box = (-50 -50 -1) to (50 50 1)
  create_atoms CPU = 0.000 seconds
Created 50 atoms
  using lattice units in orthogonal box = (-50 -50 -1) to (50 50 1)
  create_atoms CPU = 0.000 seconds
Created 50 atoms
  using lattice units in orthogonal box = (-50 -50 -1) to (50 50 1)
  create_atoms CPU = 0.000 seconds
Created 50 atoms
  using lattice units in orthogonal box = (-50 -50 -1) to (50 50 1)
  create_atoms CPU = 0.000 seconds
Created 50 atoms
  using lattice units in orthogonal box = (-50 -50 -1) to (50 50 1)
  create_atoms CPU = 0.000 seconds
Created 50 atoms
  using lattice units in orthogonal box = (-50 -50 -1) to (50 50 1)
  create_atoms CPU = 0.000 seconds
Created 50 atoms
  using lattice units in orthogonal box = (-50 -50 -1) to (50 50 1)
  create_atoms CPU = 0.000 seconds
Created 50 atoms
  using lattice units in orthogonal box = (-50 -50 -1) to (50 50 1)
  create_atoms CPU = 0.000 seconds
Created 50 atoms
  using lattice units in orthogonal box = (-50 -50 -1) to (50 50 1)
  create_atoms CPU = 0.000 seconds
Created 50 atoms
  using lattice units in orthogonal box = (-50 -50 -1) to (50 50 1)
  create_atoms CPU = 0.000 seconds
Created 50 atoms
  using lattice units in orthogonal box = (-50 -50 -1) to (50 50 1)
  create_atoms CPU = 0.000 seconds
Created 50 atoms
  using lattice units in orthogonal box = (-50 -50 -1) to (50 50 1)
  create_atoms CPU = 0.000 seconds
Created 50 atoms
  using lattice units in orthogonal box = (-50 -50 -1) to (50 50 1)
  create_atoms CPU = 0.000 seconds
Created 50 atoms
  using lattice units in orthogonal box = (-50 -50 -1) to (50 50 1)
  create_atoms CPU = 0.000 seconds
Created 50 atoms
  using lattice units in orthogonal box = (-50 -50 -1) to (50 50 1)
  create_atoms CPU = 0.000 seconds
Created 50 atoms
  using lattice units in orthogonal box = (-50 -50 -1) to (50 50 1)
  create_atoms CPU = 0.000 seconds
Created 50 atoms
  using lattice units in orthogonal box = (-50 -50 -1) to (50 50 1)
  create_atoms CPU = 0.000 seconds
Created 50 atoms
  using lattice units in orthogonal box = (-50 -50 -1) to (50 50 1)
  create_atoms CPU = 0.000 seconds
Created 50 atoms
  using lattice units in orthogonal box = (-50 -50 -1) to (50 50 1)
  create_atoms CPU = 0.000 seconds
Created 50 atoms
  using lattice units in orthogonal box = (-50 -50 -1) to (50 50 1)
  create_atoms CPU = 0.000 seconds
Created 50 atoms
  using lattice units in orthogonal box = (-50 -50 -1) to (50 50 1)
  create_atoms CPU = 0.000 seconds
Created 50 atoms
  using lattice units in orthogonal box = (-50 -50 -1) to (50 50 1)
  create_atoms CPU = 0.000 seconds
Created 50 atoms
  using lattice units in orthogonal box = (-50 -50 -1) to (50 50 1)
  create_atoms CPU = 0.000 seconds
Created 50 atoms
  using lattice units in orthogonal box = (-50 -50 -1) to (50 50 1)
  create_atoms CPU = 0.000 seconds
Created 50 atoms
  using lattice units in orthogonal box = (-50 -50 -1) to (50 50 1)
  create_atoms CPU = 0.000 seconds
Created 50 atoms
  using lattice units in orthogonal box = (-50 -50 -1) to (50 50 1)
  create_atoms CPU = 0.000 seconds
Created 50 atoms
  using lattice units in orthogonal box = (-50 -50 -1) to (50 50 1)
  create_atoms CPU = 0.000 seconds
Created 50 atoms
  using lattice units in orthogonal box = (-50 -50 -1) to (50 50 1)
  create_atoms CPU = 0.000 seconds
Created 50 atoms
  using lattice units in orthogonal box = (-50 -50 -1) to (50 50 1)
  create_atoms CPU = 0.000 seconds
Created 50 atoms
  using lattice units in orthogonal box = (-50 -50 -1) to (50 50 1)
  create_atoms CPU = 0.000 seconds
Created 50 atoms
  using lattice units in orthogonal box = (-50 -50 -1) to (50 50 1)
  create_atoms CPU = 0.000 seconds
Created 50 atoms
  using lattice units in orthogonal box = (-50 -50 -1) to (50 50 1)
  create_atoms CPU = 0.000 seconds
Created 50 atoms
  using lattice units in orthogonal box = (-50 -50 -1) to (50 50 1)
  create_atoms CPU = 0.000 seconds
Created 50 atoms
  using lattice units in orthogonal box = (-50 -50 -1) to (50 50 1)
  create_atoms CPU = 0.000 seconds
Created 50 atoms
  using lattice units in orthogonal box = (-50 -50 -1) to (50 50 1)
  create_atoms CPU = 0.000 seconds
Created 50 atoms
  using lattice units in orthogonal box = (-50 -50 -1) to (50 50 1)
  create_atoms CPU = 0.000 seconds
Created 50 atoms
  using lattice units in orthogonal box = (-50 -50 -1) to (50 50 1)
  create_atoms CPU = 0.000 seconds
Created 50 atoms
  using lattice units in orthogonal box = (-50 -50 -1) to (50 50 1)
  create_atoms CPU = 0.000 seconds
Created 50 atoms
  using lattice units in orthogonal box = (-50 -50 -1) to (50 50 1)
  create_atoms CPU = 0.000 seconds
Created 50 atoms
  using lattice units in orthogonal box = (-50 -50 -1) to (50 50 1)
  create_atoms CPU = 0.000 seconds
Created 50 atoms
  using lattice units in orthogonal box = (-50 -50 -1) to (50 50 1)
  create_atoms CPU = 0.000 seconds
Created 50 atoms
  using lattice units in orthogonal box = (-50 -50 -1) to (50 50 1)
  create_atoms CPU = 0.000 seconds
Created 50 atoms
  using lattice units in orthogonal box = (-50 -50 -1) to (50 50 1)
  create_atoms CPU = 0.000 seconds
Created 50 atoms
  using lattice units in orthogonal box = (-50 -50 -1) to (50 50 1)
  create_atoms CPU = 0.000 seconds
Created 50 atoms
  using lattice units in orthogonal box = (-50 -50 -1) to (50 50 1)
  create_atoms CPU = 0.000 seconds
Created 50 atoms
  using lattice units in orthogonal box = (-50 -50 -1) to (50 50 1)
  create_atoms CPU = 0.000 seconds
Created 50 atoms
  using lattice units in orthogonal box = (-50 -50 -1) to (50 50 1)
  create_atoms CPU = 0.000 seconds
Created 50 atoms
  using lattice units in orthogonal box = (-50 -50 -1) to (50 50 1)
  create_atoms CPU = 0.000 seconds
Created 50 atoms
  using lattice units in orthogonal box = (-50 -50 -1) to (50 50 1)
  create_atoms CPU = 0.000 seconds
Created 50 atoms
  using lattice units in orthogonal box = (-50 -50 -1) to (50 50 1)
  create_atoms CPU = 0.000 seconds
Created 50 atoms
  using lattice units in orthogonal box = (-50 -50 -1) to (50 50 1)
  create_atoms CPU = 0.000 seconds
Created 50 atoms
  using lattice units in orthogonal box = (-50 -50 -1) to (50 50 1)
  create_atoms CPU = 0.000 seconds
Created 50 atoms
  using lattice units in orthogonal box = (-50 -50 -1) to (50 50 1)
  create_atoms CPU = 0.000 seconds
Created 50 atoms
  using lattice units in orthogonal box = (-50 -50 -1) to (50 50 1)
  create_atoms CPU = 0.000 seconds
Created 50 atoms
  using lattice units in orthogonal box = (-50 -50 -1) to (50 50 1)
  create_atoms CPU = 0.000 seconds
Created 50 atoms
  using lattice units in orthogonal box = (-50 -50 -1) to (50 50 1)
  create_atoms CPU = 0.000 seconds
Created 50 atoms
  using lattice units in orthogonal box = (-50 -50 -1) to (50 50 1)
  create_atoms CPU = 0.000 seconds
Created 50 atoms
  using lattice units in orthogonal box = (-50 -50 -1) to (50 50 1)
  create_atoms CPU = 0.000 seconds
Created 50 atoms
  using lattice units in orthogonal box = (-50 -50 -1) to (50 50 1)
  create_atoms CPU = 0.000 seconds
Created 50 atoms
  using lattice units in orthogonal box = (-50 -50 -1) to (50 50 1)
  create_atoms CPU = 0.000 seconds
Created 50 atoms
  using lattice units in orthogonal box = (-50 -50 -1) to (50 50 1)
  create_atoms CPU = 0.000 seconds
Created 50 atoms
  using lattice units in orthogonal box = (-50 -50 -1) to (50 50 1)
  create_atoms CPU = 0.000 seconds
Created 50 atoms
  using lattice units in orthogonal box = (-50 -50 -1) to (50 50 1)
  create_atoms CPU = 0.000 seconds
Created 50 atoms
  using lattice units in orthogonal box = (-50 -50 -1) to (50 50 1)
  create_atoms CPU = 0.000 seconds
Created 50 atoms
  using lattice units in orthogonal box = (-50 -50 -1) to (50 50 1)
  create_atoms CPU = 0.000 seconds
Created 50 atoms
  using lattice units in orthogonal box = (-50 -50 -1) to (50 50 1)
  create_atoms CPU = 0.000 seconds
Created 50 atoms
  using lattice units in orthogonal box = (-50 -50 -1) to (50 50 1)
  create_atoms CPU = 0.000 seconds
Created 50 atoms
  using lattice units in orthogonal box = (-50 -50 -1) to (50 50 1)
  create_atoms CPU = 0.000 seconds
Created 50 atoms
  using lattice units in orthogonal box = (-50 -50 -1) to (50 50 1)
  create_atoms CPU = 0.000 seconds
Created 50 atoms
  using lattice units in orthogonal box = (-50 -50 -1) to (50 50 1)
  create_atoms CPU = 0.000 seconds
Created 50 atoms
  using lattice units in orthogonal box = (-50 -50 -1) to (50 50 1)
  create_atoms CPU = 0.000 seconds
Created 50 atoms
  using lattice units in orthogonal box = (-50 -50 -1) to (50 50 1)
  create_atoms CPU = 0.000 seconds
Created 50 atoms
  using lattice units in orthogonal box = (-50 -50 -1) to (50 50 1)
  create_atoms CPU = 0.000 seconds
Created 50 atoms
  using lattice units in orthogonal box = (-50 -50 -1) to (50 50 1)
  create_atoms CPU = 0.000 seconds
Created 50 atoms
  using lattice units in orthogonal box = (-50 -50 -1) to (50 50 1)
  create_atoms CPU = 0.000 seconds
Created 50 atoms
  using lattice units in orthogonal box = (-50 -50 -1) to (50 50 1)
  create_atoms CPU = 0.000 seconds
Created 50 atoms
  using lattice units in orthogonal box = (-50 -50 -1) to (50 50 1)
  create_atoms CPU = 0.000 seconds
Created 50 atoms
  using lattice units in orthogonal box = (-50 -50 -1) to (50 50 1)
  create_atoms CPU = 0.000 seconds
Created 50 atoms
  using lattice units in orthogonal box = (-50 -50 -1) to (50 50 1)
  create_atoms CPU = 0.000 seconds
Created 50 atoms
  using lattice units in orthogonal box = (-50 -50 -1) to (50 50 1)
  create_atoms CPU = 0.000 seconds
Created 50 atoms
  using lattice units in orthogonal box = (-50 -50 -1) to (50 50 1)
  create_atoms CPU = 0.000 seconds
Created 50 atoms
  using lattice units in orthogonal box = (-50 -50 -1) to (50 50 1)
  create_atoms CPU = 0.000 seconds
Created 50 atoms
  using lattice units in orthogonal box = (-50 -50 -1) to (50 50 1)
  create_atoms CPU = 0.000 seconds
Created 50 atoms
  using lattice units in orthogonal box = (-50 -50 -1) to (50 50 1)
  create_atoms CPU = 0.000 seconds
Created 50 atoms
  using lattice units in orthogonal box = (-50 -50 -1) to (50 50 1)
  create_atoms CPU = 0.000 seconds
Created 50 atoms
  using lattice units in orthogonal box = (-50 -50 -1) to (50 50 1)
  create_atoms CPU = 0.000 seconds
Created 50 atoms
  using lattice units in orthogonal box = (-50 -50 -1) to (50 50 1)
  create_atoms CPU = 0.000 seconds
Created 50 atoms
  using lattice units in orthogonal box = (-50 -50 -1) to (50 50 1)
  create_atoms CPU = 0.000 seconds
Created 50 atoms
  using lattice units in orthogonal box = (-50 -50 -1) to (50 50 1)
  create_atoms CPU = 0.000 seconds
Created 50 atoms
  using lattice units in orthogonal box = (-50 -50 -1) to (50 50 1)
  create_atoms CPU = 0.000 seconds
Created 50 atoms
  using lattice units in orthogonal box = (-50 -50 -1) to (50 50 1)
  create_atoms CPU = 0.000 seconds
Created 50 atoms
  using lattice units in orthogonal box = (-50 -50 -1) to (50 50 1)
  create_atoms CPU = 0.000 seconds
Created 50 atoms
  using lattice units in orthogonal box = (-50 -50 -1) to (50 50 1)
  create_atoms CPU = 0.000 seconds
Created 50 atoms
  using lattice units in orthogonal box = (-50 -50 -1) to (50 50 1)
  create_atoms CPU = 0.000 seconds
Created 50 atoms
  using lattice units in orthogonal box = (-50 -50 -1) to (50 50 1)
  create_atoms CPU = 0.000 seconds
Created 50 atoms
  using lattice units in orthogonal box = (-50 -50 -1) to (50 50 1)
  create_atoms CPU = 0.000 seconds
Created 50 atoms
  using lattice units in orthogonal box = (-50 -50 -1) to (50 50 1)
  create_atoms CPU = 0.000 seconds
Created 50 atoms
  using lattice units in orthogonal box = (-50 -50 -1) to (50 50 1)
  create_atoms CPU = 0.000 seconds
Created 50 atoms
  using lattice units in orthogonal box = (-50 -50 -1) to (50 50 1)
  create_atoms CPU = 0.000 seconds
Created 50 atoms
  using lattice units in orthogonal box = (-50 -50 -1) to (50 50 1)
  create_atoms CPU = 0.000 seconds
Created 50 atoms
  using lattice units in orthogonal box = (-50 -50 -1) to (50 50 1)
  create_atoms CPU = 0.000 seconds
Created 50 atoms
  using lattice units in orthogonal box = (-50 -50 -1) to (50 50 1)
  create_atoms CPU = 0.000 seconds
Created 50 atoms
  using lattice units in orthogonal box = (-50 -50 -1) to (50 50 1)
  create_atoms CPU = 0.000 seconds
Created 50 atoms
  using lattice units in orthogonal box = (-50 -50 -1) to (50 50 1)
  create_atoms CPU = 0.000 seconds
Created 50 atoms
  using lattice units in orthogonal box = (-50 -50 -1) to (50 50 1)
  create_atoms CPU = 0.000 seconds
Created 50 atoms
  using lattice units in orthogonal box = (-50 -50 -1) to (50 50 1)
  create_atoms CPU = 0.000 seconds
Created 50 atoms
  using lattice units in orthogonal box = (-50 -50 -1) to (50 50 1)
  create_atoms CPU = 0.000 seconds
Created 50 atoms
  using lattice units in orthogonal box = (-50 -50 -1) to (50 50 1)
  create_atoms CPU = 0.000 seconds
Created 50 atoms
  using lattice units in orthogonal box = (-50 -50 -1) to (50 50 1)
  create_atoms CPU = 0.000 seconds
Created 50 atoms
  using lattice units in orthogonal box = (-50 -50 -1) to (50 50 1)
  create_atoms CPU = 0.000 seconds
Created 50 atoms
  using lattice units in orthogonal box = (-50 -50 -1) to (50 50 1)
  create_atoms CPU = 0.000 seconds
Created 50 atoms
  using lattice units in orthogonal box = (-50 -50 -1) to (50 50 1)
  create_atoms CPU = 0.000 seconds
Created 50 atoms
  using lattice units in orthogonal box = (-50 -50 -1) to (50 50 1)
  create_atoms CPU = 0.000 seconds
Created 50 atoms
  using lattice units in orthogonal box = (-50 -50 -1) to (50 50 1)
  create_atoms CPU = 0.000 seconds
Created 50 atoms
  using lattice units in orthogonal box = (-50 -50 -1) to (50 50 1)
  create_atoms CPU = 0.000 seconds
Created 50 atoms
  using lattice units in orthogonal box = (-50 -50 -1) to (50 50 1)
  create_atoms CPU = 0.000 seconds
Created 50 atoms
  using lattice units in orthogonal box = (-50 -50 -1) to (50 50 1)
  create_atoms CPU = 0.000 seconds
Created 50 atoms
  using lattice units in orthogonal box = (-50 -50 -1) to (50 50 1)
  create_atoms CPU = 0.000 seconds
Created 50 atoms
  using lattice units in orthogonal box = (-50 -50 -1) to (50 50 1)
  create_atoms CPU = 0.000 seconds
Created 50 atoms
  using lattice units in orthogonal box = (-50 -50 -1) to (50 50 1)
  create_atoms CPU = 0.000 seconds
Created 50 atoms
  using lattice units in orthogonal box = (-50 -50 -1) to (50 50 1)
  create_atoms CPU = 0.000 seconds
Created 50 atoms
  using lattice units in orthogonal box = (-50 -50 -1) to (50 50 1)
  create_atoms CPU = 0.000 seconds
Created 50 atoms
  using lattice units in orthogonal box = (-50 -50 -1) to (50 50 1)
  create_atoms CPU = 0.000 seconds
Created 50 atoms
  using lattice units in orthogonal box = (-50 -50 -1) to (50 50 1)
  create_atoms CPU = 0.000 seconds
Created 50 atoms
  using lattice units in orthogonal box = (-50 -50 -1) to (50 50 1)
  create_atoms CPU = 0.000 seconds
Created 50 atoms
  using lattice units in orthogonal box = (-50 -50 -1) to (50 50 1)
  create_atoms CPU = 0.000 seconds
Created 50 atoms
  using lattice units in orthogonal box = (-50 -50 -1) to (50 50 1)
  create_atoms CPU = 0.000 seconds
Created 50 atoms
  using lattice units in orthogonal box = (-50 -50 -1) to (50 50 1)
  create_atoms CPU = 0.000 seconds
Created 50 atoms
  using lattice units in orthogonal box = (-50 -50 -1) to (50 50 1)
  create_atoms CPU = 0.000 seconds
Created 50 atoms
  using lattice units in orthogonal box = (-50 -50 -1) to (50 50 1)
  create_atoms CPU = 0.000 seconds
Created 50 atoms
  using lattice units in orthogonal box = (-50 -50 -1) to (50 50 1)
  create_atoms CPU = 0.000 seconds
Created 50 atoms
  using lattice units in orthogonal box = (-50 -50 -1) to (50 50 1)
  create_atoms CPU = 0.000 seconds
Created 50 atoms
  using lattice units in orthogonal box = (-50 -50 -1) to (50 50 1)
  create_atoms CPU = 0.000 seconds
Created 50 atoms
  using lattice units in orthogonal box = (-50 -50 -1) to (50 50 1)
  create_atoms CPU = 0.000 seconds
Created 50 atoms
  using lattice units in orthogonal box = (-50 -50 -1) to (50 50 1)
  create_atoms CPU = 0.000 seconds
Created 50 atoms
  using lattice units in orthogonal box = (-50 -50 -1) to (50 50 1)
  create_atoms CPU = 0.000 seconds
Created 50 atoms
  using lattice units in orthogonal box = (-50 -50 -1) to (50 50 1)
  create_atoms CPU = 0.000 seconds
Created 50 atoms
  using lattice units in orthogonal box = (-50 -50 -1) to (50 50 1)
  create_atoms CPU = 0.000 seconds
Created 50 atoms
  using lattice units in orthogonal box = (-50 -50 -1) to (50 50 1)
  create_atoms CPU = 0.000 seconds
Created 50 atoms
  using lattice units in orthogonal box = (-50 -50 -1) to (50 50 1)
  create_atoms CPU = 0.000 seconds
Created 50 atoms
  using lattice units in orthogonal box = (-50 -50 -1) to (50 50 1)
  create_atoms CPU = 0.000 seconds
Created 50 atoms
  using lattice units in orthogonal box = (-50 -50 -1) to (50 50 1)
  create_atoms CPU = 0.000 seconds
Created 50 atoms
  using lattice units in orthogonal box = (-50 -50 -1) to (50 50 1)
  create_atoms CPU = 0.000 seconds
Created 50 atoms
  using lattice units in orthogonal box = (-50 -50 -1) to (50 50 1)
  create_atoms CPU = 0.000 seconds
Created 50 atoms
  using lattice units in orthogonal box = (-50 -50 -1) to (50 50 1)
  create_atoms CPU = 0.000 seconds
Created 50 atoms
  using lattice units in orthogonal box = (-50 -50 -1) to (50 50 1)
  create_atoms CPU = 0.000 seconds
Created 50 atoms
  using lattice units in orthogonal box = (-50 -50 -1) to (50 50 1)
  create_atoms CPU = 0.000 seconds
Created 50 atoms
  using lattice units in orthogonal box = (-50 -50 -1) to (50 50 1)
  create_atoms CPU = 0.000 seconds
Created 50 atoms
  using lattice units in orthogonal box = (-50 -50 -1) to (50 50 1)
  create_atoms CPU = 0.000 seconds
Created 50 atoms
  using lattice units in orthogonal box = (-50 -50 -1) to (50 50 1)
  create_atoms CPU = 0.000 seconds
Created 50 atoms
  using lattice units in orthogonal box = (-50 -50 -1) to (50 50 1)
  create_atoms CPU = 0.000 seconds
Created 50 atoms
  using lattice units in orthogonal box = (-50 -50 -1) to (50 50 1)
  create_atoms CPU = 0.000 seconds
Created 50 atoms
  using lattice units in orthogonal box = (-50 -50 -1) to (50 50 1)
  create_atoms CPU = 0.000 seconds
Created 50 atoms
  using lattice units in orthogonal box = (-50 -50 -1) to (50 50 1)
  create_atoms CPU = 0.000 seconds
Created 50 atoms
  using lattice units in orthogonal box = (-50 -50 -1) to (50 50 1)
  create_atoms CPU = 0.000 seconds
Created 50 atoms
  using lattice units in orthogonal box = (-50 -50 -1) to (50 50 1)
  create_atoms CPU = 0.000 seconds
Created 50 atoms
  using lattice units in orthogonal box = (-50 -50 -1) to (50 50 1)
  create_atoms CPU = 0.000 seconds
Created 50 atoms
  using lattice units in orthogonal box = (-50 -50 -1) to (50 50 1)
  create_atoms CPU = 0.000 seconds
Created 50 atoms
  using lattice units in orthogonal box = (-50 -50 -1) to (50 50 1)
  create_atoms CPU = 0.000 seconds
Created 50 atoms
  using lattice units in orthogonal box = (-50 -50 -1) to (50 50 1)
  create_atoms CPU = 0.000 seconds
Created 50 atoms
  using lattice units in orthogonal box = (-50 -50 -1) to (50 50 1)
  create_atoms CPU = 0.000 seconds
Created 50 atoms
  using lattice units in orthogonal box = (-50 -50 -1) to (50 50 1)
  create_atoms CPU = 0.000 seconds
Created 50 atoms
  using lattice units in orthogonal box = (-50 -50 -1) to (50 50 1)
  create_atoms CPU = 0.000 seconds
Created 50 atoms
  using lattice units in orthogonal box = (-50 -50 -1) to (50 50 1)
  create_atoms CPU = 0.000 seconds
Created 50 atoms
  using lattice units in orthogonal box = (-50 -50 -1) to (50 50 1)
  create_atoms CPU = 0.000 seconds
Created 50 atoms
  using lattice units in orthogonal box = (-50 -50 -1) to (50 50 1)
  create_atoms CPU = 0.000 seconds
Created 50 atoms
  using lattice units in orthogonal box = (-50 -50 -1) to (50 50 1)
  create_atoms CPU = 0.000 seconds
Created 50 atoms
  using lattice units in orthogonal box = (-50 -50 -1) to (50 50 1)
  create_atoms CPU = 0.000 seconds
Created 50 atoms
  using lattice units in orthogonal box = (-50 -50 -1) to (50 50 1)
  create_atoms CPU = 0.000 seconds
Created 50 atoms
  using lattice units in orthogonal box = (-50 -50 -1) to (50 50 1)
  create_atoms CPU = 0.000 seconds
Created 50 atoms
  using lattice units in orthogonal box = (-50 -50 -1) to (50 50 1)
  create_atoms CPU = 0.000 seconds
Created 50 atoms
  using lattice units in orthogonal box = (-50 -50 -1) to (50 50 1)
  create_atoms CPU = 0.000 seconds
Created 50 atoms
  using lattice units in orthogonal box = (-50 -50 -1) to (50 50 1)
  create_atoms CPU = 0.000 seconds
Created 50 atoms
  using lattice units in orthogonal box = (-50 -50 -1) to (50 50 1)
  create_atoms CPU = 0.000 seconds
Created 50 atoms
  using lattice units in orthogonal box = (-50 -50 -1) to (50 50 1)
  create_atoms CPU = 0.000 seconds
Created 50 atoms
  using lattice units in orthogonal box = (-50 -50 -1) to (50 50 1)
  create_atoms CPU = 0.000 seconds
Created 50 atoms
  using lattice units in orthogonal box = (-50 -50 -1) to (50 50 1)
  create_atoms CPU = 0.000 seconds
Created 50 atoms
  using lattice units in orthogonal box = (-50 -50 -1) to (50 50 1)
  create_atoms CPU = 0.000 seconds
Created 50 atoms
  using lattice units in orthogonal box = (-50 -50 -1) to (50 50 1)
  create_atoms CPU = 0.000 seconds
Created 50 atoms
  using lattice units in orthogonal box = (-50 -50 -1) to (50 50 1)
  create_atoms CPU = 0.000 seconds
Created 50 atoms
  using lattice units in orthogonal box = (-50 -50 -1) to (50 50 1)
  create_atoms CPU = 0.000 seconds
Created 50 atoms
  using lattice units in orthogonal box = (-50 -50 -1) to (50 50 1)
  create_atoms CPU = 0.000 seconds
Created 50 atoms
  using lattice units in orthogonal box = (-50 -50 -1) to (50 50 1)
  create_atoms CPU = 0.000 seconds
Created 50 atoms
  using lattice units in orthogonal box = (-50 -50 -1) to (50 50 1)
  create_atoms CPU = 0.000 seconds
Created 50 atoms
  using lattice units in orthogonal box = (-50 -50 -1) to (50 50 1)
  create_atoms CPU = 0.000 seconds
Created 50 atoms
  using lattice units in orthogonal box = (-50 -50 -1) to (50 50 1)
  create_atoms CPU = 0.000 seconds
Created 50 atoms
  using lattice units in orthogonal box = (-50 -50 -1) to (50 50 1)
  create_atoms CPU = 0.000 seconds
Created 50 atoms
  using lattice units in orthogonal box = (-50 -50 -1) to (50 50 1)
  create_atoms CPU = 0.000 seconds
Created 50 atoms
  using lattice units in orthogonal box = (-50 -50 -1) to (50 50 1)
  create_atoms CPU = 0.000 seconds
Created 50 atoms
  using lattice units in orthogonal box = (-50 -50 -1) to (50 50 1)
  create_atoms CPU = 0.000 seconds
Created 50 atoms
  using lattice units in orthogonal box = (-50 -50 -1) to (50 50 1)
  create_atoms CPU = 0.000 seconds
Created 50 atoms
  using lattice units in orthogonal box = (-50 -50 -1) to (50 50 1)
  create_atoms CPU = 0.000 seconds
Created 50 atoms
  using lattice units in orthogonal box = (-50 -50 -1) to (50 50 1)
  create_atoms CPU = 0.000 seconds
Created 50 atoms
  using lattice units in orthogonal box = (-50 -50 -1) to (50 50 1)
  create_atoms CPU = 0.000 seconds
Created 50 atoms
  using lattice units in orthogonal box = (-50 -50 -1) to (50 50 1)
  create_atoms CPU = 0.000 seconds
Created 50 atoms
  using lattice units in orthogonal box = (-50 -50 -1) to (50 50 1)
  create_atoms CPU = 0.000 seconds
Created 50 atoms
  using lattice units in orthogonal box = (-50 -50 -1) to (50 50 1)
  create_atoms CPU = 0.000 seconds
Created 50 atoms
  using lattice units in orthogonal box = (-50 -50 -1) to (50 50 1)
  create_atoms CPU = 0.000 seconds
Created 50 atoms
  using lattice units in orthogonal box = (-50 -50 -1) to (50 50 1)
  create_atoms CPU = 0.000 seconds
Created 50 atoms
  using lattice units in orthogonal box = (-50 -50 -1) to (50 50 1)
  create_atoms CPU = 0.000 seconds
Created 50 atoms
  using lattice units in orthogonal box = (-50 -50 -1) to (50 50 1)
  create_atoms CPU = 0.000 seconds
Created 50 atoms
  using lattice units in orthogonal box = (-50 -50 -1) to (50 50 1)
  create_atoms CPU = 0.000 seconds
Created 50 atoms
  using lattice units in orthogonal box = (-50 -50 -1) to (50 50 1)
  create_atoms CPU = 0.000 seconds
Created 50 atoms
  using lattice units in orthogonal box = (-50 -50 -1) to (50 50 1)
  create_atoms CPU = 0.000 seconds
Created 50 atoms
  using lattice units in orthogonal box = (-50 -50 -1) to (50 50 1)
  create_atoms CPU = 0.000 seconds
Created 50 atoms
  using lattice units in orthogonal box = (-50 -50 -1) to (50 50 1)
  create_atoms CPU = 0.000 seconds
Created 50 atoms
  using lattice units in orthogonal box = (-50 -50 -1) to (50 50 1)
  create_atoms CPU = 0.000 seconds
Created 50 atoms
  using lattice units in orthogonal box = (-50 -50 -1) to (50 50 1)
  create_atoms CPU = 0.000 seconds
Created 50 atoms
  using lattice units in orthogonal box = (-50 -50 -1) to (50 50 1)
  create_atoms CPU = 0.000 seconds
Created 50 atoms
  using lattice units in orthogonal box = (-50 -50 -1) to (50 50 1)
  create_atoms CPU = 0.000 seconds
Created 50 atoms
  using lattice units in orthogonal box = (-50 -50 -1) to (50 50 1)
  create_atoms CPU = 0.000 seconds
Created 50 atoms
  using lattice units in orthogonal box = (-50 -50 -1) to (50 50 1)
  create_atoms CPU = 0.000 seconds
Created 50 atoms
  using lattice units in orthogonal box = (-50 -50 -1) to (50 50 1)
  create_atoms CPU = 0.000 seconds
Created 50 atoms
  using lattice units in orthogonal box = (-50 -50 -1) to (50 50 1)
  create_atoms CPU = 0.000 seconds
Created 50 atoms
  using lattice units in orthogonal box = (-50 -50 -1) to (50 50 1)
  create_atoms CPU = 0.000 seconds
Created 50 atoms
  using lattice units in orthogonal box = (-50 -50 -1) to (50 50 1)
  create_atoms CPU = 0.000 seconds
Created 50 atoms
  using lattice units in orthogonal box = (-50 -50 -1) to (50 50 1)
  create_atoms CPU = 0.000 seconds
Created 50 atoms
  using lattice units in orthogonal box = (-50 -50 -1) to (50 50 1)
  create_atoms CPU = 0.000 seconds
Created 50 atoms
  using lattice units in orthogonal box = (-50 -50 -1) to (50 50 1)
  create_atoms CPU = 0.000 seconds
Created 50 atoms
  using lattice units in orthogonal box = (-50 -50 -1) to (50 50 1)
  create_atoms CPU = 0.000 seconds
Created 50 atoms
  using lattice units in orthogonal box = (-50 -50 -1) to (50 50 1)
  create_atoms CPU = 0.000 seconds
Created 50 atoms
  using lattice units in orthogonal box = (-50 -50 -1) to (50 50 1)
  create_atoms CPU = 0.000 seconds
Created 50 atoms
  using lattice units in orthogonal box = (-50 -50 -1) to (50 50 1)
  create_atoms CPU = 0.000 seconds
Created 50 atoms
  using lattice units in orthogonal box = (-50 -50 -1) to (50 50 1)
  create_atoms CPU = 0.000 seconds
Created 50 atoms
  using lattice units in orthogonal box = (-50 -50 -1) to (50 50 1)
  create_atoms CPU = 0.000 seconds
Created 50 atoms
  using lattice units in orthogonal box = (-50 -50 -1) to (50 50 1)
  create_atoms CPU = 0.000 seconds
Created 50 atoms
  using lattice units in orthogonal box = (-50 -50 -1) to (50 50 1)
  create_atoms CPU = 0.000 seconds
Deleted 1000 atoms, new total = 50000

WARNING: 'reset_atom_ids' has been renamed to 'reset_atoms id'. Please update your input.

Resetting atom IDs ...
Generated 0 of 1 mixed pair_coeff terms from geometric mixing rule
WARNING: Bonds are defined but no bond style is set (src/force.cpp:198)
WARNING: Likewise 1-2 special neighbor interactions != 1.0 (src/force.cpp:200)
Finding 1-2 1-3 1-4 neighbors ...
  special bond factors lj:    0        0        0       
  special bond factors coul:  0        0        0       
     2 = max # of 1-2 neighbors
     2 = max # of 1-3 neighbors
     4 = max # of 1-4 neighbors
    41 = max # of special neighbors
  special bonds CPU = 0.003 seconds
50000 atoms in group MonomerLarge
0 atoms in group MonomerSmall
50000 atoms in group Type1
0 atoms in group Type2
Setting atom values ...
  50000 settings made for type
Setting atom values ...
  0 settings made for type
Setting atom values ...
  50000 settings made for d_area_cell
Setting atom values ...
  50000 settings made for d_length_bond
Setting atom values ...
  50000 settings made for d_k_area
Setting atom values ...
  0 settings made for d_area_cell
Setting atom values ...
  0 settings made for d_length_bond
Setting atom values ...
  0 settings made for d_k_area
50000 atoms in group border_cells
WARNING: No fixes with time integration, atoms won't move
For more information see https://docs.lammps.org/err0028 (src/verlet.cpp:60)
Generated 0 of 1 mixed pair_coeff terms from geometric mixing rule
Neighbor list info ...
  update: every = 1 steps, delay = 0 steps, check = yes
  max neighbors/atom: 2000, page size: 100000
  master list distance cutoff = 0.36283185
  ghost atom cutoff = 4
  binsize = 0.18141593, bins = 552 552 12
  1 neighbor lists, perpetual/occasional/extra = 1 0 0
  (1) pair lj/smooth/linear, perpetual
      attributes: half, newton on
      pair build: half/bin/newton
      stencil: half/bin/2d
      bin: standard
Setting up Verlet run ...
  Unit style    : lj
  Current step  : 0
  Time step     : 0.001
Per MPI rank memory allocation (min/avg/max) = 13.39 | 21.58 | 24.36 Mbytes
   Step          Temp          E_pair         E_mol          TotEng         Press     
         0   0              0              0.036176846    0.036176846   -6.4004031    
         1   0              0              0.036176846    0.036176846   -6.4004031    
Loop time of 0.00199239 on 4 procs for 1 steps with 50000 atoms

Performance: 43365.113 tau/day, 501.911 timesteps/s, 25.096 Matom-step/s
70.8% CPU use with 4 MPI tasks x 1 OpenMP threads

MPI task timing breakdown:
Section |  min time  |  avg time  |  max time  |%varavg| %total
---------------------------------------------------------------
Pair    | 3.4931e-05 | 3.7819e-05 | 3.9139e-05 |   0.0 |  1.90
Bond    | 0.00041627 | 0.00041873 | 0.00042407 |   0.0 | 21.02
Neigh   | 0          | 0          | 0          |   0.0 |  0.00
Comm    | 6.3014e-05 | 6.412e-05  | 6.6457e-05 |   0.0 |  3.22
Output  | 0.0011841  | 0.0012941  | 0.0014004  |   0.2 | 64.95
Modify  | 2.2315e-05 | 2.249e-05  | 2.2746e-05 |   0.0 |  1.13
Other   |            | 0.0001552  |            |       |  7.79

Nlocal:          12500 ave       12852 max       11853 min
Histogram: 1 0 0 0 0 0 0 1 1 1
Nghost:        4643.75 ave        4992 max        4142 min
Histogram: 1 0 0 0 1 0 0 0 0 2
Neighs:              0 ave           0 max           0 min
Histogram: 4 0 0 0 0 0 0 0 0 0

Total # of neighbors = 0
Ave neighs/atom = 0
Ave special neighs/atom = 6
Neighbor list builds = 0
Dangerous builds = 0
Setting atom values ...
  50000 settings made for d_theta
Setting atom values ...
  50000 settings made for d_theta_0
Setting atom values ...
  50000 settings made for d_fx_active
Setting atom values ...
  50000 settings made for d_fy_active
Generated 0 of 1 mixed pair_coeff terms from geometric mixing rule
Setting up Verlet run ...
  Unit style    : lj
  Current step  : 0
  Time step     : 0.001
Per MPI rank memory allocation (min/avg/max) = 13.52 | 21.8 | 24.61 Mbytes
   Step          Temp          PotEng         KinEng         TotEng    
         0   0              0.036176846    0              0.036176846  
       100   0.0029224622   0.035956308    0.0029224037   0.038878712  
       200   0.00016502603  0.035390564    0.00016502273  0.035555587  
       300   0.024092969    0.010822531    0.024092487    0.034915018  
       400   0.022429579    0.013250354    0.02242913     0.035679484  
       500   0.02987062     0.0096259519   0.029870022    0.039495974  
       600   0.019690588    0.014411708    0.019690194    0.034101903  
       700   0.015319801    0.020273045    0.015319494    0.035592539  
       800   0.025925556    0.012737342    0.025925037    0.038662379  
       900   0.019099999    0.013724392    0.019099617    0.032824009  
      1000   0.019018667    0.013806747    0.019018287    0.032825034  
      1100   0.018019647    0.019785892    0.018019287    0.037805179  
      1200   0.020287162    0.014337239    0.020286756    0.034623996  
      1300   0.015078362    0.015851668    0.01507806     0.030929728  
      1400   0.025605409    0.011949191    0.025604897    0.037554088  
      1500   0.013282993    0.018276508    0.013282727    0.031559235  
      1600   0.015993473    0.014123409    0.015993153    0.030116562  
      1700   0.029247109    0.0075275272   0.029246524    0.036774051  
      1800   0.019130631    0.013787448    0.019130248    0.032917696  
      1900   0.01148671     0.017802685    0.01148648     0.029289165  
      2000   0.022686192    0.012932642    0.022685738    0.03561838   
      2100   0.014893216    0.017803114    0.014892918    0.032696032  
      2200   0.016735614    0.011392662    0.016735279    0.028127941  
      2300   0.020619492    0.010657425    0.020619079    0.031276505  
      2400   0.027615291    0.0067228805   0.027614739    0.034337619  
      2500   0.013101405    0.013020085    0.013101143    0.026121228  
      2600   0.01372447     0.015835393    0.013724195    0.029559589  
      2700   0.021145149    0.011935937    0.021144726    0.033080662  
      2800   0.012332855    0.014504016    0.012332608    0.026836624  
      2900   0.0099194847   0.018970006    0.0099192863   0.028889292  
      3000   0.019778457    0.012947261    0.019778061    0.032725322  
      3100   0.020131451    0.0071426783   0.020131048    0.027273726  
      3200   0.017752365    0.010064133    0.01775201     0.027816143  
      3300   0.019123968    0.01167346     0.019123585    0.030797045  
      3400   0.017892167    0.0099249089   0.017891809    0.027816718  
      3500   0.016199134    0.0097552382   0.01619881     0.025954048  
      3600   0.019614704    0.0081826756   0.019614312    0.027796988  
      3700   0.018732615    0.0084286912   0.018732241    0.027160932  
      3800   0.01881612     0.007776016    0.018815743    0.026591759  
      3900   0.017961699    0.008233031    0.01796134     0.026194371  
      4000   0.017828781    0.0085538538   0.017828424    0.026382278  
      4100   0.018054066    0.0079510343   0.018053705    0.026004739  
      4200   0.01761293     0.007723306    0.017612577    0.025335883  
      4300   0.016773057    0.0082969269   0.016772721    0.025069648  
      4400   0.017624919    0.0076162606   0.017624567    0.025240827  
      4500   0.017187606    0.0072970604   0.017187262    0.024484323  
      4600   0.016644186    0.0076916675   0.016643853    0.024335521  
      4700   0.017275091    0.0073200125   0.017274745    0.024594758  
      4800   0.016960651    0.0071087966   0.016960312    0.024069108  
      4900   0.016587763    0.007290084    0.016587431    0.023877515  
      5000   0.016920997    0.0070827475   0.016920659    0.024003406  
      5100   0.016706393    0.0069036806   0.016706059    0.02360974   
      5200   0.016523592    0.006993592    0.016523261    0.023516853  
      5300   0.016677655    0.0069438661   0.016677322    0.023621188  
      5400   0.016628364    0.0067341568   0.016628031    0.023362188  
      5500   0.016600893    0.0066973881   0.016600561    0.023297949  
      5600   0.016782829    0.0066483645   0.016782493    0.023430858  
      5700   0.01672902     0.0065237229   0.016728685    0.023252408  
      5800   0.016733499    0.0064885622   0.016733165    0.023221727  
      5900   0.016893787    0.0064404676   0.016893449    0.023333917  
      6000   0.016953684    0.006284653    0.016953345    0.023237998  
      6100   0.016988352    0.0062565878   0.016988012    0.0232446    
      6200   0.017131162    0.0062248109   0.01713082     0.02335563   
      6300   0.017202161    0.0061176963   0.017201817    0.023319513  
      6400   0.017309123    0.0061251057   0.017308777    0.023433883  
      6500   0.017487934    0.0060390282   0.017487584    0.023526612  
      6600   0.017610105    0.0059264377   0.017609752    0.02353619   
      6700   0.017756301    0.0059814103   0.017755946    0.023737356  
      6800   0.018083609    0.0058671778   0.018083247    0.023950425  
      6900   0.018212775    0.0057586826   0.018212411    0.023971094  
      7000   0.018467526    0.0058174571   0.018467156    0.024284613  
      7100   0.018916012    0.005650652    0.018915633    0.024566285  
      7200   0.019041943    0.0056314663   0.019041562    0.024673029  
      7300   0.01928743     0.0057130633   0.019287045    0.025000108  
      7400   0.019844903    0.0055967061   0.019844506    0.025441212  
      7500   0.020087365    0.0055848966   0.020086963    0.02567186   
      7600   0.020438292    0.0056968276   0.020437883    0.02613471   
      7700   0.021005005    0.0057500856   0.021004585    0.026754671  
      7800   0.021446981    0.005768891    0.021446552    0.027215443  
      7900   0.02194944     0.0058658512   0.021949001    0.027814852  
      8000   0.022720227    0.0058934916   0.022719773    0.028613264  
      8100   0.023337791    0.0060637932   0.023337325    0.029401118  
      8200   0.024120682    0.0061353266   0.024120199    0.030255526  
      8300   0.024902587    0.0063522595   0.024902088    0.031254348  
      8400   0.025919681    0.0065353083   0.025919163    0.032454471  
      8500   0.026886848    0.0069020132   0.026886311    0.033788324  
      8600   0.0282501      0.0072064081   0.028249535    0.035455943  
      8700   0.029423188    0.0077514409   0.0294226      0.037174041  
      8800   0.030859514    0.0084901434   0.030858897    0.03934904   
      8900   0.03287414     0.0091887493   0.032873483    0.042062232  
      9000   0.034911646    0.010118332    0.034910948    0.04502928   
      9100   0.037088293    0.011505698    0.037087552    0.04859325   
      9200   0.039688152    0.013365818    0.039687358    0.053053176  
      9300   0.043129906    0.015413985    0.043129043    0.058543029  
      9400   0.047067328    0.018222381    0.047066387    0.065288767  
      9500   0.051809866    0.021524343    0.05180883     0.073333173  
      9600   0.057457244    0.025928938    0.057456094    0.083385033  
      9700   0.06408338     0.031784307    0.064082099    0.095866406  
      9800   0.071496424    0.039582471    0.071494994    0.11107747   
      9900   0.080128782    0.050319044    0.080127179    0.13044622   
     10000   0.089974264    0.064602912    0.089972465    0.15457538   
Loop time of 8.10614 on 4 procs for 10000 steps with 50000 atoms

Performance: 106585.854 tau/day, 1233.633 timesteps/s, 61.682 Matom-step/s
87.4% CPU use with 4 MPI tasks x 1 OpenMP threads

MPI task timing breakdown:
Section |  min time  |  avg time  |  max time  |%varavg| %total
---------------------------------------------------------------
Pair    | 0.56205    | 0.61037    | 0.66692    |   5.1 |  7.53
Bond    | 3.6134     | 3.6707     | 3.7507     |   2.6 | 45.28
Neigh   | 1.1612     | 1.1641     | 1.1688     |   0.3 | 14.36
Comm    | 1.0833     | 1.1093     | 1.1417     |   2.1 | 13.68
Output  | 0.17054    | 0.23491    | 0.30288    |  10.3 |  2.90
Modify  | 0.85449    | 0.90469    | 0.93047    |   3.2 | 11.16
Other   |            | 0.4121     |            |       |  5.08

Nlocal:          12500 ave       12984 max       11737 min
Histogram: 1 0 0 0 0 1 0 0 0 2
Nghost:        16011.5 ave       16402 max       15749 min
Histogram: 1 1 0 0 1 0 0 0 0 1
Neighs:        88193.8 ave       96732 max       77629 min
Histogram: 1 0 0 1 0 0 0 0 1 1

Total # of neighbors = 352775
Ave neighs/atom = 7.0555
Ave special neighs/atom = 6
Neighbor list builds = 638
Dangerous builds = 0
Generated 0 of 1 mixed pair_coeff terms from geometric mixing rule
Setting up Verlet run ...
  Unit style    : lj
  Current step  : 10000
  Time step     : 0.001
Per MPI rank memory allocation (min/avg/max) = 32.43 | 32.49 | 32.63 Mbytes
   Step          Temp          PotEng         KinEng         TotEng    
     10000   0.089974264    0.064874564    0.089972465    0.15484703   
     10100   0.097732576    0.057115352    0.097730621    0.15484597   
     10200   0.098239252    0.056607654    0.098237287    0.15484494   
     10300   0.1046077      0.05023618     0.10460561     0.15484179   
     10400   0.10657108     0.048271569    0.10656895     0.15484052   
     10500   0.10829024     0.046549984    0.10828807     0.15483805   
     10600   0.10948786     0.045350833    0.10948567     0.15483651   
     10700   0.11069339     0.044142749    0.11069118     0.15483393   
     10800   0.11179364     0.043040402    0.1117914      0.15483181   
     10900   0.11288983     0.041943602    0.11288757     0.15483117   
     11000   0.11396174     0.04086952     0.11395946     0.15482898   
     11100   0.11449355     0.04033666     0.11449126     0.15482792   
     11200   0.1149893      0.039839053    0.114987       0.15482605   
     11300   0.11587069     0.038954819    0.11586838     0.1548232    
     11400   0.11575332     0.039070656    0.11575101     0.15482166   
     11500   0.11538768     0.039433514    0.11538538     0.15481889   
     11600   0.11444782     0.040372493    0.11444553     0.15481802   
     11700   0.11307026     0.041746324    0.113068       0.15481433   
     11800   0.1117672      0.043048676    0.11176496     0.15481364   
     11900   0.11209935     0.042713375    0.11209711     0.15481048   
     12000   0.11118894     0.043618992    0.11118671     0.1548057    
     12100   0.11058821     0.044219179    0.110586       0.15480518   
     12200   0.10968466     0.045120924    0.10968247     0.15480339   
     12300   0.11005635     0.044748877    0.11005415     0.15480303   
     12400   0.1101221      0.04467621     0.1101199      0.15479611   
     12500   0.10988781     0.044908637    0.10988561     0.15479425   
     12600   0.10940749     0.045387783    0.10940531     0.15479309   
     12700   0.10884183     0.045950379    0.10883966     0.15479004   
     12800   0.10830505     0.046486105    0.10830289     0.15478899   
     12900   0.1082826      0.046505241    0.10828043     0.15478567   
     13000   0.10793968     0.046844852    0.10793752     0.15478237   
     13100   0.10820133     0.04658182     0.10819916     0.15478098   
     13200   0.10843941     0.046340185    0.10843724     0.15477742   
     13300   0.10746504     0.047312868    0.10746289     0.15477576   
     13400   0.10791648     0.046859027    0.10791432     0.15477335   
     13500   0.10686299     0.047910191    0.10686086     0.15477105   
     13600   0.10653708     0.048232823    0.10653495     0.15476777   
     13700   0.10654638     0.048221519    0.10654425     0.15476577   
     13800   0.10644938     0.048313901    0.10644725     0.15476115   
     13900   0.10617039     0.048591681    0.10616827     0.15475995   
     14000   0.10549277     0.049268942    0.10549066     0.1547596    
     14100   0.10533219     0.049422253    0.10533008     0.15475234   
     14200   0.10535107     0.049398081    0.10534896     0.15474704   
     14300   0.10503146     0.049722043    0.10502936     0.1547514    
     14400   0.104531       0.050218238    0.10452891     0.15474714   
     14500   0.10472295     0.050021321    0.10472085     0.15474217   
     14600   0.10493915     0.049801425    0.10493705     0.15473848   
     14700   0.10383568     0.050909921    0.10383361     0.15474353   
     14800   0.10417552     0.050561968    0.10417343     0.1547354    
     14900   0.10414389     0.050590882    0.10414181     0.15473269   
     15000   0.10378964     0.050946827    0.10378756     0.15473439   
     15100   0.10330525     0.051427335    0.10330319     0.15473052   
     15200   0.10311556     0.05161533     0.1031135      0.15472883   
     15300   0.10284972     0.051878601    0.10284766     0.15472627   
     15400   0.10286177     0.051864798    0.10285971     0.15472451   
     15500   0.10265776     0.052067015    0.1026557      0.15472272   
     15600   0.10260608     0.052115253    0.10260403     0.15471928   
     15700   0.10239565     0.052316631    0.1023936      0.15471023   
     15800   0.10234216     0.052370832    0.10234011     0.15471095   
     15900   0.1018796      0.052831326    0.10187757     0.15470889   
     16000   0.10180693     0.052900903    0.10180489     0.1547058    
     16100   0.10172131     0.052983427    0.10171928     0.1547027    
     16200   0.10139502     0.053313066    0.10139299     0.15470606   
     16300   0.10125855     0.053442801    0.10125653     0.15469933   
     16400   0.10077678     0.053925929    0.10077476     0.15470069   
     16500   0.10079274     0.053907907    0.10079072     0.15469863   
     16600   0.10056453     0.054136372    0.10056252     0.15469889   
     16700   0.10065885     0.054037079    0.10065684     0.15469392   
     16800   0.10039359     0.054298833    0.10039158     0.15469041   
     16900   0.099714199    0.0549806      0.099712205    0.1546928    
     17000   0.099873944    0.054816874    0.099871946    0.15468882   
     17100   0.099766199    0.054924095    0.099764204    0.1546883    
     17200   0.099766884    0.054915211    0.099764889    0.1546801    
     17300   0.10023727     0.054445974    0.10023526     0.15468123   
     17400   0.099566934    0.05510998     0.099564943    0.15467492   
     17500   0.099699969    0.054982228    0.099697975    0.1546802    
     17600   0.099391201    0.055285458    0.099389213    0.15467467   
     17700   0.099290222    0.055387867    0.099288236    0.1546761    
     17800   0.099126328    0.055553579    0.099124346    0.15467792   
     17900   0.099045587    0.055630132    0.099043606    0.15467374   
     18000   0.099275097    0.055394465    0.099273111    0.15466758   
     18100   0.099189829    0.05548198     0.099187845    0.15466982   
     18200   0.099520478    0.055145187    0.099518488    0.15466367   
     18300   0.099308425    0.055355824    0.099306439    0.15466226   
     18400   0.099270975    0.055393709    0.099268989    0.1546627    
     18500   0.099116723    0.055548264    0.09911474     0.154663     
     18600   0.099100599    0.055562531    0.099098617    0.15466115   
     18700   0.099188197    0.055471709    0.099186214    0.15465792   
     18800   0.099039685    0.055618078    0.099037704    0.15465578   
     18900   0.099107307    0.055554355    0.099105325    0.15465968   
     19000   0.099371253    0.055288706    0.099369265    0.15465797   
     19100   0.099496645    0.055157123    0.099494655    0.15465178   
     19200   0.098699803    0.055956798    0.098697829    0.15465463   
     19300   0.099629846    0.05501815     0.099627853    0.154646     
     19400   0.098350059    0.056302677    0.098348092    0.15465077   
     19500   0.09854082     0.056117876    0.09853885     0.15465673   
     19600   0.0987859      0.055863933    0.098783924    0.15464786   
     19700   0.098962191    0.05568062     0.098960212    0.15464083   
     19800   0.099377311    0.055264835    0.099375323    0.15464016   
     19900   0.098644124    0.05600494     0.098642151    0.15464709   
     20000   0.098711338    0.055933134    0.098709364    0.1546425    
     20100   0.098440026    0.056197304    0.098438058    0.15463536   
     20200   0.098619266    0.056022158    0.098617293    0.15463945   
     20300   0.099014387    0.055619664    0.099012407    0.15463207   
     20400   0.098648181    0.055983646    0.098646208    0.15462985   
     20500   0.0991832      0.055449661    0.099181216    0.15463088   
     20600   0.098927665    0.055702606    0.098925687    0.15462829   
     20700   0.098547717    0.056089792    0.098545746    0.15463554   
     20800   0.098619121    0.056014786    0.098617148    0.15463193   
     20900   0.098439592    0.056192265    0.098437623    0.15462989   
     21000   0.098395492    0.056241706    0.098393524    0.15463523   
     21100   0.09858024     0.056049512    0.098578269    0.15462778   
     21200   0.098413381    0.05622009     0.098411413    0.1546315    
     21300   0.098976375    0.055653247    0.098974396    0.15462764   
     21400   0.098878434    0.055750154    0.098876456    0.15462661   
     21500   0.098765484    0.055862773    0.098763509    0.15462628   
     21600   0.098866272    0.055765413    0.098864295    0.15462971   
     21700   0.099038975    0.055582639    0.099036994    0.15461963   
     21800   0.098502039    0.056127513    0.098500069    0.15462758   
     21900   0.098635085    0.055984944    0.098633112    0.15461806   
     22000   0.098242377    0.056385503    0.098240412    0.15462592   
     22100   0.098387638    0.056232796    0.09838567     0.15461847   
     22200   0.098386793    0.056236687    0.098384825    0.15462151   
     22300   0.098385269    0.056232667    0.098383301    0.15461597   
     22400   0.098250043    0.056361392    0.098248078    0.15460947   
     22500   0.098161304    0.056459121    0.098159341    0.15461846   
     22600   0.09837489     0.056238486    0.098372922    0.15461141   
     22700   0.098492955    0.056121331    0.098490985    0.15461232   
     22800   0.097776917    0.056838336    0.097774962    0.1546133    
     22900   0.098075692    0.056537497    0.09807373     0.15461123   
     23000   0.098397574    0.056215106    0.098395606    0.15461071   
     23100   0.097731634    0.056890682    0.097729679    0.15462036   
     23200   0.098319881    0.05629017     0.098317915    0.15460809   
     23300   0.098282165    0.056324196    0.0982802      0.1546044    
     23400   0.097819218    0.056787511    0.097817261    0.15460477   
     23500   0.098074689    0.056531216    0.098072728    0.15460394   
     23600   0.097499637    0.057112981    0.097497687    0.15461067   
     23700   0.097888345    0.056721999    0.097886387    0.15460839   
     23800   0.09746345     0.057150931    0.097461501    0.15461243   
     23900   0.097402185    0.057203161    0.097400237    0.1546034    
     24000   0.097895345    0.056710582    0.097893387    0.15460397   
     24100   0.097306934    0.057300603    0.097304988    0.15460559   
     24200   0.097127186    0.057482042    0.097125244    0.15460729   
     24300   0.097747776    0.056851595    0.097745821    0.15459742   
     24400   0.097153399    0.057450407    0.097151456    0.15460186   
     24500   0.097296975    0.057306865    0.097295029    0.15460189   
     24600   0.097245664    0.057360965    0.09724372     0.15460468   
     24700   0.097450447    0.057152089    0.097448498    0.15460059   
     24800   0.097634512    0.056961648    0.09763256     0.15459421   
     24900   0.097597641    0.05699879     0.097595689    0.15459448   
     25000   0.097074716    0.057528518    0.097072775    0.15460129   
     25100   0.09731193     0.057289172    0.097309984    0.15459916   
     25200   0.09745502     0.057137818    0.097453071    0.15459089   
     25300   0.097402997    0.057193907    0.097401049    0.15459496   
     25400   0.097047874    0.057547628    0.097045933    0.15459356   
     25500   0.097157759    0.057442865    0.097155816    0.15459868   
     25600   0.097292739    0.057305585    0.097290793    0.15459638   
     25700   0.097364909    0.057231134    0.097362962    0.1545941    
     25800   0.097526531    0.057060873    0.09752458     0.15458545   
     25900   0.097103821    0.057493945    0.097101879    0.15459582   
     26000   0.097501312    0.057087481    0.097499362    0.15458684   
     26100   0.097539727    0.057053171    0.097537776    0.15459095   
     26200   0.097550214    0.057042672    0.097548263    0.15459094   
     26300   0.097670003    0.056917952    0.097668049    0.154586     
     26400   0.097017294    0.057579497    0.097015354    0.15459485   
     26500   0.097136814    0.057460395    0.097134871    0.15459527   
     26600   0.097517373    0.0570695      0.097515422    0.15458492   
     26700   0.097521583    0.057066739    0.097519633    0.15458637   
     26800   0.097514503    0.057072286    0.097512553    0.15458484   
     26900   0.097711626    0.056875588    0.097709672    0.15458526   
     27000   0.097210846    0.057384097    0.097208902    0.154593     
     27100   0.0973016      0.057293107    0.097299654    0.15459276   
     27200   0.09724744     0.057342951    0.097245495    0.15458845   
     27300   0.097305771    0.057281869    0.097303825    0.15458569   
     27400   0.097524013    0.057055598    0.097522063    0.15457766   
     27500   0.096921603    0.057673212    0.096919664    0.15459288   
     27600   0.09710986     0.057472706    0.097107918    0.15458062   
     27700   0.097452168    0.05713881     0.097450219    0.15458903   
     27800   0.096854269    0.057740728    0.096852332    0.15459306   
     27900   0.097358911    0.057225471    0.097356964    0.15458244   
     28000   0.097671906    0.056921553    0.097669953    0.15459151   
     28100   0.097268936    0.05731761     0.09726699     0.1545846    
     28200   0.097401268    0.057178775    0.09739932     0.1545781    
     28300   0.097641583    0.056939166    0.09763963     0.1545788    
     28400   0.097080785    0.057506626    0.097078843    0.15458547   
     28500   0.097037293    0.057553277    0.097035353    0.15458863   
     28600   0.097365824    0.057217667    0.097363877    0.15458154   
     28700   0.097202742    0.057385123    0.097200798    0.15458592   
     28800   0.096705879    0.057884482    0.096703944    0.15458843   
     28900   0.096816452    0.057758903    0.096814516    0.15457342   
     29000   0.096419311    0.058177945    0.096417383    0.15459533   
     29100   0.097218686    0.057363389    0.097216742    0.15458013   
     29200   0.096550133    0.058035982    0.096548202    0.15458418   
     29300   0.097027441    0.057550905    0.097025501    0.15457641   
     29400   0.097192536    0.057382943    0.097190592    0.15457354   
     29500   0.096857823    0.0577254      0.096855886    0.15458129   
     29600   0.096686956    0.0579058      0.096685022    0.15459082   
     29700   0.096501091    0.058080813    0.096499161    0.15457997   
     29800   0.096443624    0.058144084    0.096441695    0.15458578   
     29900   0.096824694    0.057755209    0.096822757    0.15457797   
     30000   0.097024088    0.057548409    0.097022147    0.15457056   
     30100   0.097004265    0.057571641    0.097002325    0.15457397   
     30200   0.096704062    0.057881077    0.096702128    0.15458321   
     30300   0.096466482    0.058117839    0.096464552    0.15458239   
     30400   0.096550904    0.05803977     0.096548973    0.15458874   
     30500   0.097056623    0.057525838    0.097054682    0.15458052   
     30600   0.096799322    0.057780604    0.096797386    0.15457799   
     30700   0.09658896     0.057991771    0.096587029    0.1545788    
     30800   0.096634107    0.057945062    0.096632174    0.15457724   
     30900   0.096705739    0.057874445    0.096703805    0.15457825   
     31000   0.096544074    0.058031447    0.096542143    0.15457359   
     31100   0.096399135    0.058185369    0.096397207    0.15458258   
     31200   0.096671311    0.057898479    0.096669378    0.15456786   
     31300   0.096315845    0.058269707    0.096313919    0.15458363   
     31400   0.096499354    0.058075572    0.096497424    0.154573     
     31500   0.095653105    0.058933853    0.095651192    0.15458504   
     31600   0.096449457    0.0581242      0.096447528    0.15457173   
     31700   0.096398494    0.05817831     0.096396566    0.15457488   
     31800   0.096655118    0.057913989    0.096653185    0.15456717   
     31900   0.096447542    0.05813024     0.096445613    0.15457585   
     32000   0.096499357    0.058075355    0.096497427    0.15457278   
     32100   0.096150793    0.058424455    0.09614887     0.15457332   
     32200   0.096273342    0.058297609    0.096271417    0.15456903   
     32300   0.096380973    0.058197633    0.096379045    0.15457668   
     32400   0.096448441    0.058128594    0.096446512    0.15457511   
     32500   0.095986137    0.058590462    0.095984218    0.15457468   
     32600   0.096456205    0.058119987    0.096454276    0.15457426   
     32700   0.096233226    0.058341439    0.096231301    0.15457274   
     32800   0.095867128    0.058713285    0.095865211    0.1545785    
     32900   0.096592448    0.057979477    0.096590516    0.15456999   
     33000   0.096569389    0.057999095    0.096567458    0.15456655   
     33100   0.096302009    0.058270619    0.096300083    0.1545707    
     33200   0.096654665    0.057909745    0.096652732    0.15456248   
     33300   0.095991338    0.058578312    0.095989419    0.15456773   
     33400   0.096282944    0.058287235    0.096281019    0.15456825   
     33500   0.096398348    0.058168607    0.09639642     0.15456503   
     33600   0.095777601    0.058790156    0.095775685    0.15456584   
     33700   0.096427617    0.058141973    0.096425689    0.15456766   
     33800   0.096387799    0.058173615    0.096385871    0.15455949   
     33900   0.09647523     0.058089623    0.0964733      0.15456292   
     34000   0.095675775    0.058895359    0.095673861    0.15456922   
     34100   0.096000139    0.058564276    0.095998219    0.1545625    
     34200   0.095999087    0.058566044    0.095997167    0.15456321   
     34300   0.096249514    0.058311021    0.096247589    0.15455861   
     34400   0.095988395    0.058584398    0.095986475    0.15457087   
     34500   0.095761941    0.058810135    0.095760026    0.15457016   
     34600   0.096672758    0.057890909    0.096670825    0.15456173   
     34700   0.095830804    0.058747001    0.095828887    0.15457589   
     34800   0.095384622    0.05918922     0.095382714    0.15457193   
     34900   0.096055204    0.0585114      0.096053283    0.15456468   
     35000   0.096433163    0.058136913    0.096431234    0.15456815   
     35100   0.095657952    0.058912242    0.095656039    0.15456828   
     35200   0.096316595    0.05824698     0.096314669    0.15456165   
     35300   0.095804421    0.058766862    0.095802505    0.15456937   
     35400   0.095632035    0.058937664    0.095630122    0.15456779   
     35500   0.096171592    0.058392881    0.096169668    0.15456255   
     35600   0.096400729    0.058165412    0.096398801    0.15456421   
     35700   0.096019088    0.058553633    0.096017167    0.1545708    
     35800   0.095566171    0.059006081    0.09556426     0.15457034   
     35900   0.095956735    0.058613813    0.095954816    0.15456863   
     36000   0.09639709     0.058163111    0.096395162    0.15455827   
     36100   0.095534434    0.059032334    0.095532524    0.15456486   
     36200   0.0960943      0.058476117    0.096092378    0.1545685    
     36300   0.096054264    0.058505209    0.096052343    0.15455755   
     36400   0.095752776    0.058812214    0.095750861    0.15456307   
     36500   0.096063984    0.058499927    0.096062063    0.15456199   
     36600   0.095916301    0.058643135    0.095914383    0.15455752   
     36700   0.095952728    0.058612121    0.095950809    0.15456293   
     36800   0.095976471    0.058581563    0.095974551    0.15455611   
     36900   0.095448845    0.059115883    0.095446936    0.15456282   
     37000   0.095707859    0.058852492    0.095705944    0.15455844   
     37100   0.095911001    0.058656734    0.095909082    0.15456582   
     37200   0.095678888    0.058887481    0.095676975    0.15456446   
     37300   0.095297222    0.059269972    0.095295316    0.15456529   
     37400   0.096158707    0.058412258    0.096156784    0.15456904   
     37500   0.095963668    0.058591586    0.095961749    0.15455334   
     37600   0.095673499    0.058890314    0.095671586    0.1545619    
     37700   0.095785863    0.058776213    0.095783948    0.15456016   
     37800   0.09577968     0.058777209    0.095777764    0.15455497   
     37900   0.095425479    0.059133682    0.09542357     0.15455725   
     38000   0.096097879    0.058460454    0.096095957    0.15455641   
     38100   0.095510247    0.05905574     0.095508337    0.15456408   
     38200   0.095709864    0.058854788    0.09570795     0.15456274   
     38300   0.096177668    0.058380211    0.096175745    0.15455596   
     38400   0.095854983    0.058713154    0.095853065    0.15456622   
     38500   0.095711524    0.058849134    0.09570961     0.15455874   
     38600   0.095675555    0.058883603    0.095673642    0.15455724   
     38700   0.095957597    0.058609943    0.095955678    0.15456562   
     38800   0.095445573    0.059118502    0.095443664    0.15456217   
     38900   0.09555664     0.059002567    0.095554729    0.1545573    
     39000   0.095531319    0.059041171    0.095529408    0.15457058   
     39100   0.095612855    0.058945651    0.095610942    0.15455659   
     39200   0.095340786    0.059233375    0.095338879    0.15457225   
     39300   0.09614726     0.058406578    0.096145337    0.15455192   
     39400   0.095861062    0.058701001    0.095859145    0.15456015   
     39500   0.095846693    0.05871663     0.095844776    0.15456141   
     39600   0.095893283    0.05867087     0.095891365    0.15456224   
     39700   0.095542782    0.05901966     0.095540871    0.15456053   
     39800   0.096015995    0.058549006    0.096014075    0.15456308   
     39900   0.096097718    0.058460899    0.096095796    0.1545567    
     40000   0.095661072    0.058895319    0.095659159    0.15455448   
     40100   0.096087127    0.05847439     0.096085205    0.1545596    
     40200   0.096004091    0.058553226    0.096002171    0.1545554    
     40300   0.095636459    0.058920762    0.095634546    0.15455531   
     40400   0.096074571    0.058480347    0.09607265     0.154553     
     40500   0.095800693    0.058761944    0.095798777    0.15456072   
     40600   0.095844736    0.058720311    0.095842819    0.15456313   
     40700   0.095579357    0.058984867    0.095577446    0.15456231   
     40800   0.095997062    0.058558717    0.095995142    0.15455386   
     40900   0.095636421    0.058929406    0.095634508    0.15456391   
     41000   0.095553407    0.059010546    0.095551495    0.15456204   
     41100   0.095328228    0.05923791     0.095326322    0.15456423   
     41200   0.095343054    0.05922647     0.095341148    0.15456762   
     41300   0.09603551     0.058525726    0.096033589    0.15455932   
     41400   0.095433046    0.059136033    0.095431137    0.15456717   
     41500   0.095961142    0.058598164    0.095959223    0.15455739   
     41600   0.095343961    0.059221824    0.095342054    0.15456388   
     41700   0.095767136    0.058791616    0.095765221    0.15455684   
     41800   0.095830619    0.058732391    0.095828702    0.15456109   
     41900   0.095796273    0.058764169    0.095794357    0.15455853   
     42000   0.095907293    0.058642276    0.095905375    0.15454765   
     42100   0.096147386    0.058408326    0.096145463    0.15455379   
     42200   0.095644304    0.058916402    0.095642391    0.15455879   
     42300   0.095794805    0.058762915    0.095792889    0.1545558    
     42400   0.095726095    0.058830723    0.095724181    0.1545549    
     42500   0.095816232    0.058742363    0.095814315    0.15455668   
     42600   0.095854972    0.058702108    0.095853055    0.15455516   
     42700   0.095791487    0.058770077    0.095789571    0.15455965   
     42800   0.095253431    0.05931012     0.095251526    0.15456165   
     42900   0.09623072     0.05832295     0.096228796    0.15455175   
     43000   0.095838296    0.058724356    0.09583638     0.15456074   
     43100   0.09583244     0.058720394    0.095830523    0.15455092   
     43200   0.095422201    0.05915013     0.095420292    0.15457042   
     43300   0.094979444    0.059581228    0.094977545    0.15455877   
     43400   0.096078471    0.0584746      0.096076549    0.15455115   
     43500   0.095792986    0.058768645    0.09579107     0.15455971   
     43600   0.095621119    0.058937721    0.095619207    0.15455693   
     43700   0.095791997    0.058764518    0.095790082    0.1545546    
     43800   0.095838358    0.058720357    0.095836441    0.1545568    
     43900   0.095997052    0.058562977    0.095995132    0.15455811   
     44000   0.09589434     0.05866133     0.095892422    0.15455375   
     44100   0.095961613    0.058600181    0.095959694    0.15455987   
     44200   0.095597709    0.058963083    0.095595797    0.15455888   
     44300   0.095720339    0.05884007     0.095718425    0.15455849   
     44400   0.096122954    0.05843982     0.096121032    0.15456085   
     44500   0.095708141    0.058854393    0.095706227    0.15456062   
     44600   0.095711124    0.058848421    0.09570921     0.15455763   
     44700   0.095883016    0.058676819    0.095881098    0.15455792   
     44800   0.095722471    0.05883903     0.095720557    0.15455959   
     44900   0.096084585    0.058476824    0.096082663    0.15455949   
     45000   0.095955384    0.058602585    0.095953465    0.15455605   
     45100   0.095330358    0.05923686     0.095328451    0.15456531   
     45200   0.095926274    0.05863517     0.095924355    0.15455953   
     45300   0.096376559    0.058175685    0.096374632    0.15455032   
     45400   0.096254828    0.058299031    0.096252902    0.15455193   
     45500   0.095981718    0.058577677    0.095979798    0.15455748   
     45600   0.096021915    0.058536299    0.096019995    0.15455629   
     45700   0.09576017     0.058798589    0.095758255    0.15455684   
     45800   0.095703943    0.058854187    0.095702029    0.15455622   
     45900   0.096044258    0.058519215    0.096042337    0.15456155   
     46000   0.095938647    0.058622545    0.095936728    0.15455927   
     46100   0.095559788    0.059004498    0.095557877    0.15456237   
     46200   0.096095206    0.05846266     0.096093284    0.15455594   
     46300   0.095838219    0.058728093    0.095836303    0.1545644    
     46400   0.095653929    0.05890798     0.095652016    0.15456      
     46500   0.095978798    0.058584265    0.095976879    0.15456114   
     46600   0.095635136    0.058924544    0.095633223    0.15455777   
     46700   0.095940008    0.058617134    0.095938089    0.15455522   
     46800   0.095914423    0.058645473    0.095912505    0.15455798   
     46900   0.095278431    0.059287313    0.095276525    0.15456384   
     47000   0.095523843    0.059037661    0.095521933    0.15455959   
     47100   0.096447818    0.058102132    0.096445889    0.15454802   
     47200   0.095723876    0.058839446    0.095721961    0.15456141   
     47300   0.095640231    0.058912887    0.095638318    0.1545512    
     47400   0.095699316    0.058866787    0.095697402    0.15456419   
     47500   0.095872967    0.058684845    0.095871049    0.15455589   
     47600   0.096016437    0.058537613    0.096014517    0.15455213   
     47700   0.095777754    0.058786904    0.095775839    0.15456274   
     47800   0.095930196    0.058625615    0.095928278    0.15455389   
     47900   0.095724992    0.058844396    0.095723078    0.15456747   
     48000   0.096098551    0.058459104    0.096096629    0.15455573   
     48100   0.095698164    0.058860074    0.09569625     0.15455632   
     48200   0.095794613    0.058767511    0.095792697    0.15456021   
     48300   0.095841201    0.05872038     0.095839284    0.15455966   
     48400   0.095700062    0.058860986    0.095698148    0.15455913   
     48500   0.096022418    0.058531546    0.096020497    0.15455204   
     48600   0.095953726    0.058605213    0.095951807    0.15455702   
     48700   0.096086035    0.058466299    0.096084114    0.15455041   
     48800   0.095833381    0.058716973    0.095831464    0.15454844   
     48900   0.095670773    0.058892823    0.09566886     0.15456168   
     49000   0.095431953    0.059126278    0.095430045    0.15455632   
     49100   0.09558064     0.058980886    0.095578729    0.15455961   
     49200   0.095759256    0.058800312    0.095757341    0.15455765   
     49300   0.095729726    0.058836655    0.095727811    0.15456447   
     49400   0.096222258    0.058323973    0.096220334    0.15454431   
     49500   0.095656867    0.05890362     0.095654954    0.15455857   
     49600   0.095963784    0.058591145    0.095961865    0.15455301   
     49700   0.09578821     0.058768775    0.095786295    0.15455507   
     49800   0.09585709     0.058695953    0.095855173    0.15455113   
     49900   0.095898895    0.058655855    0.095896977    0.15455283   
     50000   0.095722282    0.058839934    0.095720368    0.1545603    
     50100   0.095724988    0.058832586    0.095723074    0.15455566   
     50200   0.095376763    0.059182722    0.095374856    0.15455758   
     50300   0.095924392    0.058632646    0.095922473    0.15455512   
     50400   0.095394569    0.059165015    0.095392661    0.15455768   
     50500   0.096051172    0.058500339    0.09604925     0.15454959   
     50600   0.095728354    0.058830681    0.095726439    0.15455712   
     50700   0.095521367    0.059037659    0.095519457    0.15455712   
     50800   0.09575688     0.058804243    0.095754965    0.15455921   
     50900   0.095632853    0.058922025    0.095630941    0.15455297   
     51000   0.095593979    0.058966105    0.095592067    0.15455817   
     51100   0.095912613    0.058638616    0.095910695    0.15454931   
     51200   0.09535273     0.059208201    0.095350823    0.15455902   
     51300   0.095795499    0.058757615    0.095793583    0.1545512    
     51400   0.095698793    0.058857307    0.095696879    0.15455419   
     51500   0.095418754    0.059136593    0.095416846    0.15455344   
     51600   0.09597408     0.058577846    0.095972161    0.15455001   
     51700   0.095434876    0.059124989    0.095432967    0.15455796   
     51800   0.095677119    0.05887355     0.095675206    0.15454876   
     51900   0.095288385    0.059274923    0.095286479    0.1545614    
     52000   0.095260945    0.059303682    0.09525904     0.15456272   
     52100   0.095639048    0.058909208    0.095637135    0.15454634   
     52200   0.095679649    0.058880033    0.095677736    0.15455777   
     52300   0.095465339    0.059085935    0.09546343     0.15454936   
     52400   0.095400478    0.059162356    0.09539857     0.15456093   
     52500   0.095690214    0.058864602    0.0956883      0.1545529    
     52600   0.0955975      0.058959056    0.095595588    0.15455464   
     52700   0.09543157     0.059132093    0.095429662    0.15456175   
     52800   0.095657189    0.058900086    0.095655276    0.15455536   
     52900   0.095773852    0.058779128    0.095771937    0.15455106   
     53000   0.095783909    0.058766424    0.095781994    0.15454842   
     53100   0.095829478    0.058726992    0.095827562    0.15455455   
     53200   0.095513095    0.059048903    0.095511184    0.15456009   
     53300   0.095457236    0.059102648    0.095455326    0.15455797   
     53400   0.09556212     0.059003009    0.095560208    0.15456322   
     53500   0.09580004     0.058753688    0.095798124    0.15455181   
     53600   0.095575118    0.058980928    0.095573206    0.15455413   
     53700   0.095544518    0.059019513    0.095542607    0.15456212   
     53800   0.095773721    0.058787907    0.095771805    0.15455971   
     53900   0.095596213    0.058960057    0.095594301    0.15455436   
     54000   0.095264918    0.059302613    0.095263013    0.15456563   
     54100   0.095575783    0.058982999    0.095573872    0.15455687   
     54200   0.095256736    0.059303366    0.09525483     0.1545582    
     54300   0.095654001    0.058902813    0.095652088    0.1545549    
     54400   0.096068399    0.058484877    0.096066478    0.15455135   
     54500   0.095899567    0.058655779    0.095897649    0.15455343   
     54600   0.095984189    0.058570422    0.095982269    0.15455269   
     54700   0.095670988    0.058889185    0.095669074    0.15455826   
     54800   0.095095687    0.059477416    0.095093785    0.1545712    
     54900   0.095627207    0.05892094     0.095625295    0.15454623   
     55000   0.095942407    0.058621097    0.095940488    0.15456159   
     55100   0.095606019    0.058945201    0.095604107    0.15454931   
     55200   0.09584779     0.058706163    0.095845873    0.15455204   
     55300   0.095544534    0.059011913    0.095542623    0.15455454   
     55400   0.095487061    0.059071278    0.095485151    0.15455643   
     55500   0.09598859     0.058566514    0.095986671    0.15455318   
     55600   0.095487444    0.059069735    0.095485534    0.15455527   
     55700   0.095514874    0.059049997    0.095512964    0.15456296   
     55800   0.0957898      0.058757893    0.095787885    0.15454578   
     55900   0.095651968    0.058906385    0.095650055    0.15455644   
     56000   0.095740036    0.058818318    0.095738122    0.15455644   
     56100   0.095441853    0.059114914    0.095439944    0.15455486   
     56200   0.095928231    0.058619431    0.095926313    0.15454574   
     56300   0.095694448    0.058862952    0.095692535    0.15455549   
     56400   0.095574231    0.058979129    0.09557232     0.15455145   
     56500   0.09522183     0.059342217    0.095219926    0.15456214   
     56600   0.095845819    0.058715232    0.095843902    0.15455913   
     56700   0.095902384    0.058644847    0.095900465    0.15454531   
     56800   0.095764391    0.058806084    0.095762476    0.15456856   
     56900   0.09591344     0.05864019     0.095911522    0.15455171   
     57000   0.09525963     0.059293461    0.095257725    0.15455119   
     57100   0.095504648    0.059050261    0.095502738    0.154553     
     57200   0.095739765    0.058810442    0.09573785     0.15454829   
     57300   0.095802914    0.058742352    0.095800998    0.15454335   
     57400   0.096019711    0.058526266    0.09601779     0.15454406   
     57500   0.095553303    0.058997682    0.095551392    0.15454907   
     57600   0.095195098    0.05936348     0.095193194    0.15455667   
     57700   0.095564519    0.058984254    0.095562607    0.15454686   
     57800   0.095670586    0.058876092    0.095668673    0.15454476   
     57900   0.095939693    0.058613975    0.095937775    0.15455175   
     58000   0.095323358    0.059238266    0.095321452    0.15455972   
     58100   0.095526807    0.059017728    0.095524896    0.15454262   
     58200   0.095281893    0.059288914    0.095279988    0.1545689    
     58300   0.096260151    0.058277856    0.096258226    0.15453608   
     58400   0.095749248    0.058795422    0.095747333    0.15454275   
     58500   0.095808274    0.05874589     0.095806357    0.15455225   
     58600   0.095427042    0.059127973    0.095425134    0.15455311   
     58700   0.09550632     0.059052367    0.09550441     0.15455678   
     58800   0.095761074    0.058794417    0.095759159    0.15455358   
     58900   0.095255976    0.059295708    0.095254071    0.15454978   
     59000   0.095745886    0.058807983    0.095743971    0.15455195   
     59100   0.095873164    0.058671922    0.095871246    0.15454317   
     59200   0.095299939    0.059250236    0.095298033    0.15454827   
     59300   0.095237553    0.05931921     0.095235648    0.15455486   
     59400   0.095682086    0.058877976    0.095680172    0.15455815   
     59500   0.095757967    0.058790094    0.095756051    0.15454615   
     59600   0.095401475    0.059151532    0.095399567    0.1545511    
     59700   0.095542103    0.05902261     0.095540192    0.1545628    
     59800   0.095656313    0.05889394     0.0956544      0.15454834   
     59900   0.095573291    0.058984037    0.095571379    0.15455542   
     60000   0.095524333    0.059030841    0.095522423    0.15455326   
     60100   0.095532664    0.059022219    0.095530753    0.15455297   
     60200   0.095822542    0.058723704    0.095820626    0.15454433   
     60300   0.095767153    0.058785252    0.095765238    0.15455049   
     60400   0.095867777    0.058679852    0.09586586     0.15454571   
     60500   0.095259216    0.059295699    0.095257311    0.15455301   
     60600   0.095261004    0.059296424    0.095259099    0.15455552   
     60700   0.095661555    0.058887425    0.095659642    0.15454707   
     60800   0.095172635    0.059383662    0.095170731    0.15455439   
     60900   0.096059326    0.058494691    0.096057405    0.1545521    
     61000   0.095484015    0.059065453    0.095482105    0.15454756   
     61100   0.095827348    0.058718765    0.095825431    0.1545442    
     61200   0.095818964    0.058735455    0.095817048    0.1545525    
     61300   0.095396412    0.059154735    0.095394504    0.15454924   
     61400   0.095399208    0.059160382    0.0953973      0.15455768   
     61500   0.095560033    0.058989887    0.095558122    0.15454801   
     61600   0.095607804    0.058943255    0.095605892    0.15454915   
     61700   0.095636725    0.058916792    0.095634812    0.1545516    
     61800   0.095436607    0.059116632    0.095434698    0.15455133   
     61900   0.095373381    0.059179583    0.095371474    0.15455106   
     62000   0.095339974    0.059217549    0.095338067    0.15455562   
     62100   0.096080007    0.058466167    0.096078085    0.15454425   
     62200   0.095621856    0.058936694    0.095619944    0.15455664   
     62300   0.095050864    0.059510559    0.095048963    0.15455952   
     62400   0.09562415     0.05893238     0.095622237    0.15455462   
     62500   0.095520653    0.059031207    0.095518743    0.15454995   
     62600   0.09546832     0.059088215    0.09546641     0.15455463   
     62700   0.095796848    0.058751579    0.095794932    0.15454651   
     62800   0.095676531    0.058873836    0.095674618    0.15454845   
     62900   0.095597599    0.05895718     0.095595687    0.15455287   
     63000   0.095912904    0.058642152    0.095910986    0.15455314   
     63100   0.095589043    0.058959712    0.095587131    0.15454684   
     63200   0.095479521    0.059078945    0.095477611    0.15455656   
     63300   0.095463135    0.059089       0.095461225    0.15455023   
     63400   0.096011822    0.058541868    0.096009901    0.15455177   
     63500   0.095748276    0.058807095    0.095746361    0.15455346   
     63600   0.095569156    0.058988887    0.095567245    0.15455613   
     63700   0.095690525    0.05885772     0.095688611    0.15454633   
     63800   0.09628468     0.058269353    0.096282754    0.15455211   
     63900   0.095256802    0.059295683    0.095254896    0.15455058   
     64000   0.096066523    0.058487159    0.096064601    0.15455176   
     64100   0.095905809    0.058649745    0.095903891    0.15455364   
     64200   0.095196411    0.059360053    0.095194507    0.15455456   
     64300   0.096059464    0.058497872    0.096057542    0.15455541   
     64400   0.095423595    0.059135761    0.095421686    0.15455745   
     64500   0.09544784     0.059100025    0.095445931    0.15454596   
     64600   0.096658052    0.057887331    0.096656119    0.15454345   
     64700   0.095266523    0.059291235    0.095264617    0.15455585   
     64800   0.0957428      0.058808984    0.095740885    0.15454987   
     64900   0.096257952    0.058295007    0.096256027    0.15455103   
     65000   0.095980738    0.058565594    0.095978818    0.15454441   
     65100   0.095711105    0.058841616    0.095709191    0.15455081   
     65200   0.095868556    0.058684775    0.095866639    0.15455141   
     65300   0.095777956    0.058775831    0.09577604     0.15455187   
     65400   0.095451229    0.059104531    0.09544932     0.15455385   
     65500   0.095419593    0.059138185    0.095417685    0.15455587   
     65600   0.09585808     0.058695951    0.095856163    0.15455211   
     65700   0.095169013    0.059396498    0.09516711     0.15456361   
     65800   0.095753227    0.05879987     0.095751312    0.15455118   
     65900   0.094781967    0.059790176    0.094780071    0.15457025   
     66000   0.095716039    0.058830426    0.095714125    0.15454455   
     66100   0.095322886    0.059229675    0.09532098     0.15455066   
     66200   0.09578997     0.058760315    0.095788054    0.15454837   
     66300   0.095948336    0.058601953    0.095946417    0.15454837   
     66400   0.095691395    0.058859457    0.095689481    0.15454894   
     66500   0.095749146    0.058798368    0.095747231    0.1545456    
     66600   0.0956279      0.058933544    0.095625988    0.15455953   
     66700   0.095844911    0.058697611    0.095842994    0.15454061   
     66800   0.095806499    0.058752322    0.095804582    0.1545569    
     66900   0.095709009    0.058851389    0.095707094    0.15455848   
     67000   0.095986273    0.058565624    0.095984353    0.15454998   
     67100   0.095293419    0.059264007    0.095291513    0.15455552   
     67200   0.095754229    0.058801919    0.095752313    0.15455423   
     67300   0.096165926    0.058375063    0.096164002    0.15453907   
     67400   0.095511885    0.059048092    0.095509974    0.15455807   
     67500   0.096025761    0.058521289    0.096023841    0.15454513   
     67600   0.095649369    0.058904713    0.095647456    0.15455217   
     67700   0.09566957     0.058881849    0.095667656    0.15454951   
     67800   0.095366909    0.059188145    0.095365002    0.15455315   
     67900   0.095588276    0.058973949    0.095586364    0.15456031   
     68000   0.095869647    0.058678083    0.09586773     0.15454581   
     68100   0.095766625    0.05878799     0.09576471     0.1545527    
     68200   0.095665951    0.058888142    0.095664037    0.15455218   
     68300   0.096013576    0.058523323    0.096011656    0.15453498   
     68400   0.095615626    0.058937267    0.095613714    0.15455098   
     68500   0.095570739    0.058980713    0.095568827    0.15454954   
     68600   0.095563883    0.058991291    0.095561972    0.15455326   
     68700   0.095730359    0.05882742     0.095728444    0.15455586   
     68800   0.096008807    0.058536536    0.096006887    0.15454342   
     68900   0.095532341    0.059029377    0.09553043     0.15455981   
     69000   0.09582531     0.058727122    0.095823394    0.15455052   
     69100   0.095200234    0.059363607    0.09519833     0.15456194   
     69200   0.095518759    0.059034037    0.095516849    0.15455089   
     69300   0.09571272     0.058848937    0.095710806    0.15455974   
     69400   0.095730117    0.058819893    0.095728202    0.15454809   
     69500   0.09620169     0.058339136    0.096199766    0.1545389    
     69600   0.095794244    0.058764555    0.095792328    0.15455688   
     69700   0.095903435    0.058648147    0.095901517    0.15454966   
     69800   0.095386019    0.059169       0.095384111    0.15455311   
     69900   0.095599219    0.058953248    0.095597307    0.15455055   
     70000   0.095710978    0.058842767    0.095709064    0.15455183   
     70100   0.095251673    0.059301871    0.095249768    0.15455164   
     70200   0.095313574    0.059239809    0.095311667    0.15455148   
     70300   0.09564887     0.058903293    0.095646957    0.15455025   
     70400   0.096011021    0.05853317     0.0960091      0.15454227   
     70500   0.094889313    0.05966878     0.094887415    0.1545562    
     70600   0.096056661    0.058489816    0.09605474     0.15454456   
     70700   0.095710049    0.058846445    0.095708135    0.15455458   
     70800   0.095446373    0.059102155    0.095444464    0.15454662   
     70900   0.095617115    0.058940496    0.095615202    0.1545557    
     71000   0.095608348    0.05894119     0.095606436    0.15454763   
     71100   0.095643702    0.058912621    0.095641789    0.15455441   
     71200   0.095313078    0.059246872    0.095311171    0.15455804   
     71300   0.09540762     0.059152005    0.095405712    0.15455772   
     71400   0.095486037    0.059077014    0.095484128    0.15456114   
     71500   0.095551369    0.059000625    0.095549458    0.15455008   
     71600   0.095819221    0.058727263    0.095817305    0.15454457   
     71700   0.096007092    0.058544478    0.096005171    0.15454965   
     71800   0.095647242    0.058911231    0.095645329    0.15455656   
     71900   0.095619188    0.058939507    0.095617276    0.15455678   
     72000   0.095562998    0.058995172    0.095561087    0.15455626   
     72100   0.095859766    0.058688955    0.095857848    0.1545468    
     72200   0.095681479    0.058873379    0.095679566    0.15455294   
     72300   0.096260541    0.058288656    0.096258616    0.15454727   
     72400   0.095715023    0.058840833    0.095713109    0.15455394   
     72500   0.095857112    0.058695199    0.095855195    0.15455039   
     72600   0.095700874    0.058851629    0.09569896     0.15455059   
     72700   0.095874978    0.058677643    0.095873061    0.1545507    
     72800   0.095992761    0.058550514    0.095990841    0.15454135   
     72900   0.095483715    0.059072959    0.095481805    0.15455476   
     73000   0.095528258    0.059028343    0.095526348    0.15455469   
     73100   0.095286889    0.059274747    0.095284983    0.15455973   
     73200   0.095947884    0.058603332    0.095945965    0.1545493    
     73300   0.09570363     0.058848908    0.095701716    0.15455062   
     73400   0.09520683     0.05935131     0.095204926    0.15455624   
     73500   0.09586758     0.058687369    0.095865662    0.15455303   
     73600   0.095643246    0.058908097    0.095641333    0.15454943   
     73700   0.095748046    0.058802788    0.095746131    0.15454892   
     73800   0.095417744    0.059145611    0.095415835    0.15456145   
     73900   0.095552246    0.059004805    0.095550335    0.15455514   
     74000   0.095392825    0.059173851    0.095390917    0.15456477   
     74100   0.096020393    0.058529147    0.096018472    0.15454762   
     74200   0.095563348    0.058992533    0.095561436    0.15455397   
     74300   0.09582408     0.058732066    0.095822164    0.15455423   
     74400   0.095843442    0.058708654    0.095841525    0.15455018   
     74500   0.095437536    0.059125276    0.095435627    0.1545609    
     74600   0.095753178    0.058796582    0.095751262    0.15454784   
     74700   0.095545503    0.059015051    0.095543592    0.15455864   
     74800   0.096062876    0.058486267    0.096060955    0.15454722   
     74900   0.095542393    0.059014033    0.095540482    0.15455452   
     75000   0.096021853    0.058527656    0.096019933    0.15454759   
     75100   0.095631689    0.05892158     0.095629777    0.15455136   
     75200   0.095474924    0.059083972    0.095473015    0.15455699   
     75300   0.095595609    0.058964595    0.095593697    0.15455829   
     75400   0.095814207    0.058732707    0.095812291    0.154545     
     75500   0.095703622    0.058853671    0.095701708    0.15455538   
     75600   0.095453095    0.059101965    0.095451186    0.15455315   
     75700   0.095323288    0.059234691    0.095321382    0.15455607   
     75800   0.096362945    0.058178541    0.096361018    0.15453956   
     75900   0.095763427    0.058785987    0.095761512    0.1545475    
     76000   0.095768545    0.058781095    0.095766629    0.15454772   
     76100   0.095525536    0.059037139    0.095523625    0.15456076   
     76200   0.095866343    0.05868991     0.095864425    0.15455434   
     76300   0.095216501    0.059342152    0.095214597    0.15455675   
     76400   0.095548929    0.059003723    0.095547018    0.15455074   
     76500   0.095495403    0.059062234    0.095493493    0.15455573   
     76600   0.095886383    0.058658665    0.095884465    0.15454313   
     76700   0.095878115    0.05867388     0.095876198    0.15455008   
     76800   0.095696552    0.058856418    0.095694638    0.15455106   
     76900   0.095408006    0.059144293    0.095406098    0.15455039   
     77000   0.095454395    0.059100271    0.095452486    0.15455276   
     77100   0.095847982    0.058710543    0.095846065    0.15455661   
     77200   0.095878739    0.058672642    0.095876822    0.15454946   
     77300   0.095854861    0.058692359    0.095852944    0.1545453    
     77400   0.095524688    0.059033848    0.095522778    0.15455663   
     77500   0.09575356     0.058801691    0.095751645    0.15455334   
     77600   0.095950264    0.0585984      0.095948345    0.15454674   
     77700   0.095642109    0.058911739    0.095640196    0.15455194   
     77800   0.095923445    0.058624582    0.095921526    0.15454611   
     77900   0.095714189    0.058833137    0.095712274    0.15454541   
     78000   0.095551546    0.059001768    0.095549635    0.1545514    
     78100   0.095786476    0.058762583    0.09578456     0.15454714   
     78200   0.095504577    0.059050356    0.095502667    0.15455302   
     78300   0.095654114    0.058906499    0.095652201    0.1545587    
     78400   0.09556637     0.058986541    0.095564459    0.154551     
     78500   0.095651128    0.058899693    0.095649215    0.15454891   
     78600   0.095626606    0.058928344    0.095624694    0.15455304   
     78700   0.095895769    0.058656646    0.095893851    0.1545505    
     78800   0.095776307    0.058778227    0.095774391    0.15455262   
     78900   0.096126512    0.058426959    0.096124589    0.15455155   
     79000   0.095181681    0.059374933    0.095179778    0.15455471   
     79100   0.095481556    0.059078135    0.095479646    0.15455778   
     79200   0.095885687    0.058666127    0.095883769    0.1545499    
     79300   0.095518531    0.059027506    0.09551662     0.15454413   
     79400   0.095265091    0.059301385    0.095263186    0.15456457   
     79500   0.095592261    0.058968969    0.095590349    0.15455932   
     79600   0.09578192     0.058773134    0.095780005    0.15455314   
     79700   0.09571526     0.058835718    0.095713345    0.15454906   
     79800   0.095539562    0.059022804    0.095537652    0.15456046   
     79900   0.095590585    0.058953469    0.095588673    0.15454214   
     80000   0.095540167    0.059011995    0.095538256    0.15455025   
     80100   0.095565403    0.058997605    0.095563492    0.1545611    
     80200   0.095741834    0.058803587    0.095739919    0.15454351   
     80300   0.095798408    0.058755562    0.095796492    0.15455205   
     80400   0.095702249    0.058847739    0.095700335    0.15454807   
     80500   0.09526165     0.0592976      0.095259745    0.15455734   
     80600   0.095977555    0.058572682    0.095975636    0.15454832   
     80700   0.095145325    0.059413029    0.095143422    0.15455645   
     80800   0.095665674    0.058886979    0.09566376     0.15455074   
     80900   0.095560223    0.058996874    0.095558312    0.15455519   
     81000   0.09546759     0.059089662    0.095465681    0.15455534   
     81100   0.095366016    0.059190346    0.095364109    0.15455445   
     81200   0.095547974    0.059006515    0.095546063    0.15455258   
     81300   0.095545187    0.059013479    0.095543276    0.15455676   
     81400   0.095809457    0.058742129    0.095807541    0.15454967   
     81500   0.095680536    0.058880987    0.095678622    0.15455961   
     81600   0.095883016    0.058674334    0.095881098    0.15455543   
     81700   0.095592496    0.058959023    0.095590584    0.15454961   
     81800   0.095606282    0.058946313    0.09560437     0.15455068   
     81900   0.095973981    0.058575615    0.095972061    0.15454768   
     82000   0.095744       0.058811329    0.095742085    0.15455341   
     82100   0.096027805    0.058521501    0.096025884    0.15454738   
     82200   0.095127286    0.059439107    0.095125383    0.15456449   
     82300   0.09609836     0.058446711    0.096096438    0.15454315   
     82400   0.095634108    0.058915342    0.095632196    0.15454754   
     82500   0.095327569    0.059231       0.095325662    0.15455666   
     82600   0.095366918    0.059186381    0.095365011    0.15455139   
     82700   0.096091891    0.058459012    0.096089969    0.15454898   
     82800   0.096158379    0.058390639    0.096156455    0.15454709   
     82900   0.095217016    0.05934615     0.095215112    0.15456126   
     83000   0.096085679    0.058459764    0.096083758    0.15454352   
     83100   0.095548858    0.059011595    0.095546947    0.15455854   
     83200   0.095483202    0.059071718    0.095481292    0.15455301   
     83300   0.095596309    0.058955238    0.095594397    0.15454963   
     83400   0.09565849     0.058893322    0.095656577    0.1545499    
     83500   0.095591587    0.05895599     0.095589675    0.15454566   
     83600   0.095131069    0.059430308    0.095129167    0.15455947   
     83700   0.0956636      0.058890091    0.095661687    0.15455178   
     83800   0.09558127     0.058967569    0.095579359    0.15454693   
     83900   0.096202207    0.058346325    0.096200283    0.15454661   
     84000   0.095608688    0.058941523    0.095606776    0.1545483    
     84100   0.095420652    0.059127691    0.095418744    0.15454643   
     84200   0.095506669    0.059052435    0.095504759    0.15455719   
     84300   0.095709089    0.05883915     0.095707174    0.15454632   
     84400   0.095257854    0.05929498     0.095255949    0.15455093   
     84500   0.095633135    0.058922811    0.095631223    0.15455403   
     84600   0.09568359     0.058865313    0.095681677    0.15454699   
     84700   0.095498512    0.059056398    0.095496602    0.154553     
     84800   0.096265654    0.058280952    0.096263729    0.15454468   
     84900   0.095720387    0.058836389    0.095718473    0.15455486   
     85000   0.09568537     0.058868505    0.095683457    0.15455196   
     85100   0.095657249    0.058893741    0.095655336    0.15454908   
     85200   0.095810828    0.058740081    0.095808911    0.15454899   
     85300   0.095577938    0.058974871    0.095576027    0.1545509    
     85400   0.095684329    0.058866658    0.095682415    0.15454907   
     85500   0.095602496    0.058949233    0.095600584    0.15454982   
     85600   0.095780124    0.058771368    0.095778208    0.15454958   
     85700   0.095937644    0.058610744    0.095935725    0.15454647   
     85800   0.096051504    0.058500767    0.096049583    0.15455035   
     85900   0.095446596    0.0591095      0.095444687    0.15455419   
     86000   0.095810639    0.058747604    0.095808723    0.15455633   
     86100   0.095592733    0.058954529    0.095590821    0.15454535   
     86200   0.095458186    0.059098643    0.095456277    0.15455492   
     86300   0.095935192    0.058616602    0.095933274    0.15454988   
     86400   0.095535451    0.059017919    0.09553354     0.15455146   
     86500   0.095700564    0.058855904    0.09569865     0.15455455   
     86600   0.095946429    0.058603968    0.09594451     0.15454848   
     86700   0.095022215    0.059535187    0.095020315    0.1545555    
     86800   0.096231316    0.058308528    0.096229391    0.15453792   
     86900   0.095971417    0.058579852    0.095969498    0.15454935   
     87000   0.095517953    0.059036795    0.095516043    0.15455284   
     87100   0.096260965    0.058282123    0.09625904     0.15454116   
     87200   0.09609357     0.058460838    0.096091648    0.15455249   
     87300   0.095662852    0.05888594     0.095660939    0.15454688   
     87400   0.095679754    0.058877387    0.095677841    0.15455523   
     87500   0.095616525    0.058938979    0.095614613    0.15455359   
     87600   0.095385203    0.059170006    0.095383295    0.1545533    
     87700   0.095751526    0.058803187    0.095749611    0.1545528    
     87800   0.095228959    0.059333922    0.095227054    0.15456098   
     87900   0.095592393    0.058961185    0.095590481    0.15455167   
     88000   0.096074177    0.058472745    0.096072256    0.154545     
     88100   0.09577417     0.058780668    0.095772254    0.15455292   
     88200   0.095772212    0.058783167    0.095770297    0.15455346   
     88300   0.095671118    0.058875831    0.095669204    0.15454503   
     88400   0.095848767    0.058700583    0.09584685     0.15454743   
     88500   0.095913408    0.058632928    0.09591149     0.15454442   
     88600   0.09551497     0.059045347    0.095513059    0.15455841   
     88700   0.095912915    0.058634067    0.095910996    0.15454506   
     88800   0.095691251    0.058863855    0.095689338    0.15455319   
     88900   0.095856951    0.058692899    0.095855034    0.15454793   
     89000   0.095621466    0.058939537    0.095619553    0.15455909   
     89100   0.095572701    0.058983345    0.09557079     0.15455414   
     89200   0.095549473    0.059002925    0.095547562    0.15455049   
     89300   0.095681221    0.05887257     0.095679307    0.15455188   
     89400   0.095871431    0.058684038    0.095869513    0.15455355   
     89500   0.094853949    0.059710555    0.094852052    0.15456261   
     89600   0.095919462    0.058628971    0.095917544    0.15454651   
     89700   0.09585963     0.058698822    0.095857712    0.15455653   
     89800   0.095668792    0.05888801     0.095666879    0.15455489   
     89900   0.095135742    0.059428675    0.09513384     0.15456251   
     90000   0.095949147    0.058603355    0.095947228    0.15455058   
     90100   0.096115858    0.058432507    0.096113935    0.15454644   
     90200   0.095694353    0.058863684    0.095692439    0.15455612   
     90300   0.095660054    0.058895854    0.095658141    0.154554     
     90400   0.095891196    0.058660305    0.095889278    0.15454958   
     90500   0.0952408      0.059320339    0.095238895    0.15455923   
     90600   0.095940236    0.058612012    0.095938317    0.15455033   
     90700   0.095961561    0.058597745    0.095959642    0.15455739   
     90800   0.095558011    0.0590006      0.0955561      0.1545567    
     90900   0.095623084    0.058939761    0.095621171    0.15456093   
     91000   0.095748066    0.058801024    0.095746151    0.15454717   
     91100   0.09555678     0.059003519    0.095554869    0.15455839   
     91200   0.096000846    0.058550751    0.095998926    0.15454968   
     91300   0.095199251    0.059356629    0.095197347    0.15455398   
     91400   0.095567668    0.058993891    0.095565757    0.15455965   
     91500   0.095918114    0.058634036    0.095916196    0.15455023   
     91600   0.095615818    0.058936294    0.095613905    0.1545502    
     91700   0.095269022    0.059292211    0.095267117    0.15455933   
     91800   0.095880292    0.058674812    0.095878374    0.15455319   
     91900   0.095860106    0.058692301    0.095858189    0.15455049   
     92000   0.095811755    0.058743762    0.095809838    0.1545536    
     92100   0.095734897    0.058820431    0.095732983    0.15455341   
     92200   0.095831549    0.058728375    0.095829633    0.15455801   
     92300   0.095671975    0.058882068    0.095670062    0.15455213   
     92400   0.095825622    0.058733151    0.095823705    0.15455686   
     92500   0.095645306    0.058913093    0.095643393    0.15455649   
     92600   0.095613566    0.05893808     0.095611654    0.15454973   
     92700   0.09625301     0.058296302    0.096251085    0.15454739   
     92800   0.095414236    0.059149182    0.095412328    0.15456151   
     92900   0.095809658    0.058737761    0.095807742    0.1545455    
     93000   0.09603299     0.058524174    0.096031069    0.15455524   
     93100   0.095808904    0.05874321     0.095806988    0.1545502    
     93200   0.095082551    0.059480506    0.095080649    0.15456116   
     93300   0.095597449    0.058958416    0.095595538    0.15455395   
     93400   0.095912894    0.058641557    0.095910976    0.15455253   
     93500   0.095973736    0.058576383    0.095971817    0.1545482    
     93600   0.095652019    0.058897382    0.095650106    0.15454749   
     93700   0.095639989    0.05891536     0.095638076    0.15455344   
     93800   0.096398615    0.058151186    0.096396687    0.15454787   
     93900   0.095450523    0.059110466    0.095448614    0.15455908   
     94000   0.095838734    0.058718491    0.095836817    0.15455531   
     94100   0.095568305    0.058988288    0.095566394    0.15455468   
     94200   0.095844768    0.058704723    0.095842852    0.15454758   
     94300   0.095611261    0.058951338    0.095609348    0.15456069   
     94400   0.095509992    0.059045703    0.095508081    0.15455378   
     94500   0.095340725    0.059221075    0.095338819    0.15455989   
     94600   0.095821141    0.05872832     0.095819225    0.15454754   
     94700   0.095472562    0.059086107    0.095470653    0.15455676   
     94800   0.096168293    0.058384121    0.09616637     0.15455049   
     94900   0.095665774    0.058889394    0.095663861    0.15455325   
     95000   0.095805087    0.058745045    0.095803171    0.15454822   
     95100   0.096322451    0.058222303    0.096320525    0.15454283   
     95200   0.095952836    0.058603522    0.095950917    0.15455444   
     95300   0.095566165    0.058991164    0.095564254    0.15455542   
     95400   0.096137455    0.058405837    0.096135533    0.15454137   
     95500   0.095969849    0.058588649    0.095967929    0.15455658   
     95600   0.095707607    0.058842902    0.095705693    0.1545486    
     95700   0.095304891    0.059257942    0.095302985    0.15456093   
     95800   0.095487001    0.059072909    0.095485091    0.154558     
     95900   0.09582294     0.058724079    0.095821023    0.1545451    
     96000   0.095852461    0.058696752    0.095850544    0.1545473    
     96100   0.095908807    0.058642541    0.095906889    0.15454943   
     96200   0.095728237    0.058825672    0.095726322    0.15455199   
     96300   0.095703754    0.058850049    0.09570184     0.15455189   
     96400   0.09575775     0.058794074    0.095755835    0.15454991   
     96500   0.095999434    0.058552225    0.095997514    0.15454974   
     96600   0.095390448    0.059175027    0.09538854     0.15456357   
     96700   0.095599279    0.058957845    0.095597367    0.15455521   
     96800   0.095910275    0.058636683    0.095908357    0.15454504   
     96900   0.095817521    0.058734712    0.095815605    0.15455032   
     97000   0.096143796    0.058403737    0.096141873    0.15454561   
     97100   0.095264273    0.059289942    0.095262368    0.15455231   
     97200   0.095682585    0.058868445    0.095680672    0.15454912   
     97300   0.09623906     0.058300857    0.096237135    0.15453799   
     97400   0.095439668    0.059112593    0.095437759    0.15455035   
     97500   0.095619013    0.058928412    0.095617101    0.15454551   
     97600   0.095600577    0.05894959     0.095598665    0.15454826   
     97700   0.094987834    0.059567989    0.094985935    0.15455392   
     97800   0.095841915    0.058709434    0.095839998    0.15454943   
     97900   0.095602941    0.058949561    0.095601029    0.15455059   
     98000   0.095650611    0.058903192    0.095648698    0.15455189   
     98100   0.09553068     0.059022668    0.095528769    0.15455144   
     98200   0.096121288    0.058423833    0.096119366    0.1545432    
     98300   0.095926394    0.058625396    0.095924476    0.15454987   
     98400   0.095770375    0.058775418    0.09576846     0.15454388   
     98500   0.095634988    0.058917121    0.095633075    0.1545502    
     98600   0.095729003    0.058819029    0.095727088    0.15454612   
     98700   0.095619276    0.058932355    0.095617364    0.15454972   
     98800   0.096110254    0.058426089    0.096108332    0.15453442   
     98900   0.095276203    0.059285038    0.095274298    0.15455934   
     99000   0.095851067    0.058694762    0.09584915     0.15454391   
     99100   0.095635538    0.058920803    0.095633625    0.15455443   
     99200   0.095809649    0.058743108    0.095807733    0.15455084   
     99300   0.095755717    0.058800767    0.095753802    0.15455457   
     99400   0.095972214    0.058574463    0.095970295    0.15454476   
     99500   0.095690081    0.05886465     0.095688168    0.15455282   
     99600   0.095533207    0.059021644    0.095531296    0.15455294   
     99700   0.096047876    0.05850584     0.096045955    0.1545518    
     99800   0.095614471    0.058943454    0.095612559    0.15455601   
     99900   0.095187417    0.059368869    0.095185513    0.15455438   
    100000   0.095780738    0.058772905    0.095778822    0.15455173   
    100100   0.0955126      0.059040532    0.09551069     0.15455122   
    100200   0.095774493    0.058772775    0.095772577    0.15454535   
    100300   0.095733618    0.05882477     0.095731704    0.15455647   
    100400   0.094951019    0.059608883    0.09494912     0.154558     
    100500   0.095571134    0.058985465    0.095569222    0.15455469   
    100600   0.096042975    0.058509047    0.096041054    0.1545501    
    100700   0.096154106    0.058384996    0.096152183    0.15453718   
    100800   0.09570057     0.058853473    0.095698656    0.15455213   
    100900   0.095790303    0.058758953    0.095788388    0.15454734   
    101000   0.095725545    0.058828702    0.095723631    0.15455233   
    101100   0.095660683    0.058888565    0.09565877     0.15454734   
    101200   0.095749387    0.058806969    0.095747472    0.15455444   
    101300   0.09544477     0.059111029    0.095442861    0.15455389   
    101400   0.095332289    0.059224063    0.095330382    0.15455444   
    101500   0.095722424    0.058829108    0.095720509    0.15454962   
    101600   0.095615817    0.05893597     0.095613905    0.15454987   
    101700   0.096062835    0.058483269    0.096060914    0.15454418   
    101800   0.095375725    0.059184305    0.095373817    0.15455812   
    101900   0.095560112    0.058992628    0.095558201    0.15455083   
    102000   0.095495035    0.059057369    0.095493125    0.15455049   
    102100   0.095965697    0.058579117    0.095963778    0.15454289   
    102200   0.095649847    0.058906332    0.095647934    0.15455427   
    102300   0.095233941    0.059322946    0.095232037    0.15455498   
    102400   0.095718877    0.058832077    0.095716963    0.15454904   
    102500   0.095420083    0.059140379    0.095418175    0.15455855   
    102600   0.095300096    0.059258119    0.09529819     0.15455631   
    102700   0.095962326    0.058584881    0.095960407    0.15454529   
    102800   0.095283403    0.059278223    0.095281497    0.15455972   
    102900   0.095775167    0.058775061    0.095773251    0.15454831   
    103000   0.095698909    0.058849948    0.095696995    0.15454694   
    103100   0.095169593    0.059387693    0.09516769     0.15455538   
    103200   0.096350601    0.058194603    0.096348674    0.15454328   
    103300   0.095715659    0.058837163    0.095713745    0.15455091   
    103400   0.095249234    0.059314661    0.095247329    0.15456199   
    103500   0.096034523    0.058507637    0.096032602    0.15454024   
    103600   0.095769123    0.058788806    0.095767208    0.15455601   
    103700   0.095899576    0.058647077    0.095897658    0.15454474   
    103800   0.095744173    0.058812491    0.095742258    0.15455475   
    103900   0.095481993    0.059076936    0.095480083    0.15455702   
    104000   0.095576435    0.058973843    0.095574523    0.15454837   
    104100   0.095677252    0.058874525    0.095675338    0.15454986   
    104200   0.095568671    0.058987188    0.09556676     0.15455395   
    104300   0.095628602    0.058927554    0.095626689    0.15455424   
    104400   0.096090135    0.058453162    0.096088213    0.15454137   
    104500   0.095443757    0.059113566    0.095441848    0.15455541   
    104600   0.09530948     0.059246494    0.095307574    0.15455407   
    104700   0.094926756    0.059633137    0.094924857    0.15455799   
    104800   0.096109546    0.058434863    0.096107624    0.15454249   
    104900   0.095476388    0.059080408    0.095474478    0.15455489   
    105000   0.095976018    0.058571722    0.095974099    0.15454582   
    105100   0.095826742    0.058722026    0.095824826    0.15454685   
    105200   0.095887505    0.058658768    0.095885588    0.15454436   
    105300   0.09593856     0.058613697    0.095936641    0.15455034   
    105400   0.095656392    0.05889454     0.095654479    0.15454902   
    105500   0.095458182    0.059089235    0.095456273    0.15454551   
    105600   0.095821418    0.058727537    0.095819502    0.15454704   
    105700   0.095478348    0.059075247    0.095476439    0.15455169   
    105800   0.095622414    0.058930812    0.095620502    0.15455131   
    105900   0.095442389    0.059116613    0.09544048     0.15455709   
    106000   0.095344247    0.059211301    0.09534234     0.15455364   
    106100   0.095918389    0.058628864    0.095916471    0.15454533   
    106200   0.095429789    0.059127948    0.09542788     0.15455583   
    106300   0.095842899    0.058703057    0.095840982    0.15454404   
    106400   0.095713861    0.058838914    0.095711947    0.15455086   
    106500   0.095600773    0.05894597     0.095598861    0.15454483   
    106600   0.095567522    0.058987744    0.09556561     0.15455335   
    106700   0.095524521    0.059023469    0.095522611    0.15454608   
    106800   0.095538981    0.059015307    0.09553707     0.15455238   
    106900   0.096116752    0.058429854    0.096114829    0.15454468   
    107000   0.095909355    0.058634177    0.095907437    0.15454161   
    107100   0.095448222    0.059105732    0.095446313    0.15455204   
    107200   0.095910282    0.058644265    0.095908364    0.15455263   
    107300   0.09561171     0.058944623    0.095609798    0.15455442   
    107400   0.095759529    0.058785345    0.095757614    0.15454296   
    107500   0.095944498    0.058606168    0.095942579    0.15454875   
    107600   0.095428511    0.059124771    0.095426602    0.15455137   
    107700   0.096005529    0.05854161     0.096003609    0.15454522   
    107800   0.095597068    0.058961818    0.095595156    0.15455697   
    107900   0.095446347    0.059102154    0.095444438    0.15454659   
    108000   0.095480979    0.059066085    0.095479069    0.15454515   
    108100   0.095434135    0.059127839    0.095432226    0.15456006   
    108200   0.095018918    0.059540446    0.095017017    0.15455746   
    108300   0.095618168    0.058937995    0.095616256    0.15455425   
    108400   0.095533894    0.059016947    0.095531983    0.15454893   
    108500   0.095671127    0.058876339    0.095669214    0.15454555   
    108600   0.095727753    0.058826757    0.095725839    0.1545526    
    108700   0.095709753    0.058841551    0.095707839    0.15454939   
    108800   0.095459391    0.059097609    0.095457482    0.15455509   
    108900   0.095751191    0.058797156    0.095749276    0.15454643   
    109000   0.095459558    0.059095533    0.095457649    0.15455318   
    109100   0.09580425     0.058746547    0.095802334    0.15454888   
    109200   0.095469342    0.059087111    0.095467433    0.15455454   
    109300   0.095349391    0.059209538    0.095347484    0.15455702   
    109400   0.095649045    0.0589052      0.095647132    0.15455233   
    109500   0.095448297    0.059104194    0.095446388    0.15455058   
    109600   0.095507548    0.059047609    0.095505638    0.15455325   
    109700   0.095547424    0.059001191    0.095545513    0.1545467    
    109800   0.095710198    0.05884507     0.095708284    0.15455335   
    109900   0.0956716      0.058871763    0.095669687    0.15454145   
    110000   0.095174839    0.059382404    0.095172935    0.15455534   
Loop time of 79.1565 on 4 procs for 100000 steps with 50000 atoms

Performance: 109150.865 tau/day, 1263.320 timesteps/s, 63.166 Matom-step/s
85.3% CPU use with 4 MPI tasks x 1 OpenMP threads

MPI task timing breakdown:
Section |  min time  |  avg time  |  max time  |%varavg| %total
---------------------------------------------------------------
Pair    | 15.306     | 15.594     | 15.774     |   4.4 | 19.70
Bond    | 36.705     | 37.293     | 38.045     |   8.2 | 47.11
Neigh   | 1.3633     | 1.3641     | 1.3654     |   0.1 |  1.72
Comm    | 11.77      | 12.541     | 12.876     |  12.7 | 15.84
Output  | 1.7189     | 2.3095     | 2.9138     |  29.1 |  2.92
Modify  | 6.0207     | 6.096      | 6.1973     |   2.6 |  7.70
Other   |            | 3.958      |            |       |  5.00

Nlocal:          12500 ave       12526 max       12475 min
Histogram: 1 0 1 0 0 0 0 1 0 1
Nghost:        15683.2 ave       15715 max       15644 min
Histogram: 1 0 0 0 1 0 0 1 0 1
Neighs:        81385.5 ave       82022 max       80686 min
Histogram: 1 0 1 0 0 0 0 0 1 1

Total # of neighbors = 325542
Ave neighs/atom = 6.51084
Ave special neighs/atom = 6
Neighbor list builds = 444
Dangerous builds = 0
Setting atom values ...
  50000 settings made for d_eps_atom
Setting atom values ...
  50000 settings made for d_theta2
Generated 0 of 1 mixed pair_coeff terms from geometric mixing rule
Neighbor list info ...
  update: every = 1 steps, delay = 0 steps, check = yes
  max neighbors/atom: 2000, page size: 100000
  master list distance cutoff = 0.42566371
  ghost atom cutoff = 4
  binsize = 0.21283185, bins = 149 149 10
  1 neighbor lists, perpetual/occasional/extra = 1 0 0
  (1) pair wca/att, perpetual
      attributes: half, newton on
      pair build: half/bin/newton
      stencil: half/bin/2d
      bin: standard
Setting up Verlet run ...
  Unit style    : lj
  Current step  : 0
  Time step     : 0.001
Per MPI rank memory allocation (min/avg/max) = 26.87 | 26.98 | 27.09 Mbytes
   Step          Temp          PotEng         KinEng         TotEng         Press     
         0   0.095174839    0.02189794     0.095172935    0.11707087     0.017171366  
    100000   0.00021484727 -0.15095303     0.00021484297 -0.15073819    -19.480026    
    200000   0.00020426996 -0.15313796     0.00020426588 -0.1529337     -18.548339    
    300000   0.00020429776 -0.15513899     0.00020429367 -0.1549347     -20.430633    
